20
Coordinates from ORCA-job Inputs/AscorbicAcid_CPCM E -684.416465710339
  O           0.13327957072643     -1.13524556589060      0.64548956636882
  O          -1.38159237720781      0.14135427365689     -1.45486888885880
  O           0.82399186830148      2.40487018895824      0.22264407236142
  O          -3.95505849262631     -0.09885393946799     -0.21468954166034
  O           3.06084298831420      0.56477504936906     -0.56014338535984
  O           2.04393624677414     -2.15167099313029     -0.04992766251427
  C          -0.34082393073949      0.22872367666018      0.75749430508806
  C          -1.62508400114696      0.39303955824222     -0.08114310258932
  C           0.82390476720589      1.06306378214905      0.28580313029151
  C          -2.76698983320872     -0.45364971606561      0.48184375692433
  C           1.83399306008885      0.24551645419787     -0.07351852885422
  C           1.41132575848922     -1.12989341511709      0.14660123054638
  H          -0.56307623966549      0.41939735921734      1.81495057713820
  H          -1.92481173564134      1.44695409421080     -0.02056931319293
  H          -2.52788570583112     -1.52022831364574      0.35221029319472
  H          -2.86109770156970     -0.25880199370109      1.56130960831913
  H          -1.19923491414208     -0.80936051291353     -1.55466734102887
  H           0.00449771343537      2.77133836437939      0.59966594459634
  H          -4.66484975734292     -0.67714575273817      0.10848346682115
  H           3.54693271548636     -0.27188259827093     -0.68926818929147
