20
Coordinates from ORCA-job Inputs/AscorbicAcid_CPCM E -684.410460674713
  O       0.125563     -1.116288      0.680918
  O      -1.320850      0.107555     -1.436369
  O       0.903043      2.409774      0.374897
  O      -3.944820     -0.136148     -0.214969
  O       3.084247      0.583972     -0.506323
  O       2.024896     -2.129181     -0.135299
  C      -0.322700      0.249655      0.787998
  C      -1.593124      0.431157     -0.062236
  C       0.855628      1.040392      0.341156
  C      -2.737340     -0.446115      0.474868
  C       1.847432      0.243348     -0.042524
  C       1.375791     -1.135290      0.137655
  H      -0.534031      0.453903      1.843914
  H      -1.907896      1.480771     -0.051993
  H      -2.529952     -1.509139      0.316347
  H      -2.901215     -0.263362      1.541272
  H      -1.461247     -0.848053     -1.558369
  H       0.002540      2.773569      0.413982
  H      -4.626618     -0.760073      0.089496
  H       3.532854     -0.258146     -0.716721
20
Coordinates from ORCA-job Inputs/AscorbicAcid_CPCM E -684.414355199911
  O       0.129539     -1.121715      0.671582
  O      -1.333123      0.141997     -1.436300
  O       0.882299      2.415922      0.337730
  O      -3.935275     -0.118087     -0.219579
  O       3.077325      0.565582     -0.521595
  O       2.020588     -2.144324     -0.102512
  C      -0.328596      0.247119      0.784417
  C      -1.605063      0.415622     -0.061211
  C       0.845479      1.058440      0.323384
  C      -2.735798     -0.456303      0.480131
  C       1.845126      0.245186     -0.049170
  C       1.391343     -1.133724      0.155074
  H      -0.545806      0.444368      1.841904
  H      -1.925562      1.462865     -0.021023
  H      -2.499934     -1.518151      0.321417
  H      -2.866451     -0.280217      1.557973
  H      -1.434062     -0.813787     -1.576258
  H      -0.018407      2.776101      0.421480
  H      -4.623800     -0.734823      0.074809
  H       3.532378     -0.279772     -0.704554
20
Coordinates from ORCA-job Inputs/AscorbicAcid_CPCM E -684.415499503045
  O       0.135300     -1.125422      0.658451
  O      -1.353766      0.170198     -1.439511
  O       0.865954      2.416775      0.297567
  O      -3.934859     -0.108144     -0.218911
  O       3.077587      0.549929     -0.527509
  O       2.031782     -2.152422     -0.047015
  C      -0.331996      0.243650      0.774683
  C      -1.617096      0.402783     -0.064635
  C       0.837848      1.072317      0.301492
  C      -2.743792     -0.463943      0.482602
  C       1.842570      0.246840     -0.059896
  C       1.397887     -1.128977      0.139096
  H      -0.551289      0.434602      1.832618
  H      -1.936968      1.450791      0.006603
  H      -2.488959     -1.524439      0.331517
  H      -2.845423     -0.289659      1.564922
  H      -1.395151     -0.788575     -1.592160
  H      -0.024698      2.778733      0.454692
  H      -4.631320     -0.717304      0.074450
  H       3.538591     -0.295433     -0.691358
20
Coordinates from ORCA-job Inputs/AscorbicAcid_CPCM E -684.415798382474
  O       0.137389     -1.128269      0.655999
  O      -1.362100      0.178146     -1.441438
  O       0.853423      2.413767      0.268347
  O      -3.938331     -0.107935     -0.221218
  O       3.071065      0.546449     -0.547430
  O       2.028263     -2.155152     -0.054083
  C      -0.332965      0.239481      0.771813
  C      -1.620114      0.399624     -0.066764
  C       0.835142      1.073764      0.295930
  C      -2.752221     -0.463787      0.481609
  C       1.841637      0.246518     -0.060963
  C       1.415205     -1.125906      0.168464
  H      -0.553572      0.428533      1.829354
  H      -1.934753      1.449539      0.016203
  H      -2.494240     -1.524950      0.340558
  H      -2.847585     -0.285106      1.563242
  H      -1.353934     -0.782408     -1.593740
  H      -0.023998      2.777947      0.482856
  H      -4.639468     -0.711465      0.075327
  H       3.543357     -0.296492     -0.686366
20
Coordinates from ORCA-job Inputs/AscorbicAcid_CPCM E -684.416106442658
  O       0.135568     -1.129239      0.655785
  O      -1.365483      0.172635     -1.444286
  O       0.850508      2.411463      0.262280
  O      -3.942099     -0.111236     -0.221104
  O       3.070141      0.550253     -0.548991
  O       2.033095     -2.154415     -0.051229
  C      -0.334062      0.237489      0.769550
  C      -1.619959      0.401206     -0.069108
  C       0.833723      1.069697      0.294559
  C      -2.755493     -0.460585      0.481251
  C       1.839612      0.245085     -0.064027
  C       1.411015     -1.127570      0.157821
  H      -0.553695      0.428930      1.827092
  H      -1.930809      1.451938      0.010583
  H      -2.501266     -1.523260      0.345790
  H      -2.853914     -0.276137      1.561864
  H      -1.326817     -0.788542     -1.587421
  H      -0.018325      2.777601      0.505654
  H      -4.643583     -0.711423      0.080148
  H       3.544044     -0.291588     -0.688511
20
Coordinates from ORCA-job Inputs/AscorbicAcid_CPCM E -684.416392189503
  O       0.133138     -1.133310      0.651844
  O      -1.374888      0.154032     -1.450808
  O       0.835590      2.405331      0.240742
  O      -3.949852     -0.111606     -0.221069
  O       3.063058      0.559781     -0.558760
  O       2.040428     -2.152461     -0.051683
  C      -0.338508      0.230485      0.762701
  C      -1.621736      0.398427     -0.077069
  C       0.827120      1.063214      0.290057
  C      -2.764529     -0.453364      0.481412
  C       1.833771      0.243853     -0.071608
  C       1.408372     -1.129430      0.144160
  H      -0.558906      0.424507      1.819956
  H      -1.922607      1.451675     -0.007226
  H      -2.518342     -1.519562      0.360990
  H      -2.863279     -0.253842      1.559860
  H      -1.242945     -0.802785     -1.567854
  H      -0.002403      2.775121      0.570258
  H      -4.656001     -0.699055      0.092912
  H       3.544719     -0.278712     -0.691115
20
Coordinates from ORCA-job Inputs/AscorbicAcid_CPCM E -684.416444046567
  O       0.133216     -1.135679      0.647922
  O      -1.379653      0.142803     -1.453738
  O       0.827165      2.403513      0.230746
  O      -3.953079     -0.106853     -0.220004
  O       3.059934      0.564783     -0.562554
  O       2.043561     -2.151622     -0.053246
  C      -0.340475      0.227165      0.759237
  C      -1.623374      0.394721     -0.080925
  C       0.824050      1.061836      0.288033
  C      -2.767931     -0.450903      0.482147
  C       1.832459      0.244612     -0.074258
  C       1.410112     -1.129880      0.142494
  H      -0.562230      0.420175      1.816451
  H      -1.920660      1.449149     -0.017793
  H      -2.525871     -1.518343      0.364793
  H      -2.864595     -0.246996      1.560084
  H      -1.208415     -0.809442     -1.558021
  H       0.004590      2.772960      0.597530
  H      -4.662240     -0.687581      0.099714
  H       3.545637     -0.272118     -0.690912
20
Coordinates from ORCA-job Inputs/AscorbicAcid_CPCM E -684.416460889333
  O       0.133406     -1.136107      0.645567
  O      -1.381589      0.139766     -1.454624
  O       0.824313      2.403831      0.226013
  O      -3.954104     -0.102145     -0.217845
  O       3.059810      0.566027     -0.562075
  O       2.044140     -2.151604     -0.053102
  C      -0.340871      0.227037      0.757922
  C      -1.624475      0.393237     -0.081613
  C       0.823587      1.062205      0.287027
  C      -2.767854     -0.451339      0.482524
  C       1.833257      0.245282     -0.074244
  C       1.411438     -1.130105      0.144431
  H      -0.563187      0.418430      1.815268
  H      -1.922120      1.447740     -0.021292
  H      -2.527573     -1.518632      0.360628
  H      -2.863054     -0.250142      1.560962
  H      -1.200574     -0.811145     -1.554496
  H       0.005167      2.771473      0.602566
  H      -4.664094     -0.681005      0.103711
  H       3.546577     -0.270504     -0.689628
20
Coordinates from ORCA-job Inputs/AscorbicAcid_CPCM E -684.416464047222
  O       0.133315     -1.135584      0.645186
  O      -1.381626      0.140375     -1.454750
  O       0.824009      2.404561      0.223825
  O      -3.954671     -0.099737     -0.215879
  O       3.060413      0.565408     -0.560894
  O       2.043839     -2.151692     -0.051512
  C      -0.340845      0.228084      0.757621
  C      -1.624947      0.393004     -0.081315
  C       0.823806      1.062818      0.286315
  C      -2.767272     -0.452689      0.482289
  C       1.833827      0.245513     -0.073811
  C       1.411443     -1.130019      0.145841
  H      -0.563199      0.418784      1.815057
  H      -1.923879      1.447170     -0.021273
  H      -2.527745     -1.519531      0.355449
  H      -2.861793     -0.255414      1.561347
  H      -1.199512     -0.810420     -1.554083
  H       0.004684      2.771204      0.601059
  H      -4.664544     -0.678364      0.106487
  H       3.546896     -0.271169     -0.689261
20
Coordinates from ORCA-job Inputs/AscorbicAcid_CPCM E -684.416465710339
  O       0.133280     -1.135246      0.645490
  O      -1.381592      0.141354     -1.454869
  O       0.823992      2.404870      0.222644
  O      -3.955058     -0.098854     -0.214690
  O       3.060843      0.564775     -0.560143
  O       2.043936     -2.151671     -0.049928
  C      -0.340824      0.228724      0.757494
  C      -1.625084      0.393040     -0.081143
  C       0.823905      1.063064      0.285803
  C      -2.766990     -0.453650      0.481844
  C       1.833993      0.245516     -0.073519
  C       1.411326     -1.129893      0.146601
  H      -0.563076      0.419397      1.814951
  H      -1.924812      1.446954     -0.020569
  H      -2.527886     -1.520228      0.352210
  H      -2.861098     -0.258802      1.561310
  H      -1.199235     -0.809361     -1.554667
  H       0.004498      2.771338      0.599666
  H      -4.664850     -0.677146      0.108483
  H       3.546933     -0.271883     -0.689268
