21
Coordinates from ORCA-job Inputs/CaffeicAcid_CPCM E -648.319685025608
  O           3.29356238105082     -1.80196705083296     -0.00310370490308
  O           4.17822084258072      0.73692849237282     -0.04177119651220
  O          -4.70725930123636      0.87563816595388      0.04475297663836
  O          -4.07653498789318     -1.29198150741482      0.06191269882095
  C           0.07235302013176     -0.01683613587932      0.00623728195944
  C           1.02836910886454     -1.05570834100266      0.00919368136593
  C           0.52734464679181      1.31641851307895     -0.01370151831121
  C           2.38941044978205     -0.77869558299266     -0.00684880955445
  C           2.82533530074694      0.56139432178960     -0.02673832218915
  C           1.89048283648608      1.59970816590867     -0.03005922608903
  C          -1.33994258255419     -0.38019441505504      0.02424167173559
  C          -2.41005862294615      0.44459185277624      0.02570950791612
  C          -3.77134602578662     -0.10621534392432      0.04569291466809
  H           0.70867538834679     -2.09426764000130      0.02425130106821
  H          -0.17992395533536      2.13959055027573     -0.01655487241292
  H           2.24097012181767      2.62909746165049     -0.04531652352668
  H          -1.54860405281919     -1.44957643147465      0.03844683962300
  H          -2.32198373744755      1.52629348746106      0.01270094794916
  H           4.18823023463408     -1.41576665427442     -0.01802377417822
  H           4.39700340038502      1.68511907761464     -0.05471935717693
  H          -5.58230446539967      0.44032901417005      0.05899748330903
