21
Coordinates from ORCA-job Inputs/CaffeicAcid_CPCM E -648.315131393377
  O       3.280532     -1.780486      0.217334
  O       4.154169      0.778433      0.046539
  O      -4.606440      0.899121      0.384372
  O      -4.133715     -1.186436     -0.284897
  C       0.070400     -0.052543     -0.095302
  C       1.016919     -1.078462      0.037130
  C       0.524064      1.274264     -0.205021
  C       2.371061     -0.769939      0.083029
  C       2.807950      0.547632     -0.008024
  C       1.890527      1.578206     -0.155169
  C      -1.353968     -0.415680     -0.167268
  C      -2.369614      0.397142      0.160875
  C      -3.752953     -0.082850      0.053304
  H       0.712336     -2.119106      0.110583
  H      -0.178748      2.092296     -0.342959
  H       2.208360      2.612479     -0.238960
  H      -1.565014     -1.432215     -0.498718
  H      -2.233687      1.408535      0.519364
  H       4.148670     -1.330112      0.221167
  H       4.299938      1.737746     -0.021249
  H      -5.488789      0.485875      0.279169
21
Coordinates from ORCA-job Inputs/CaffeicAcid_CPCM E -648.318177160479
  O       3.305084     -1.785028      0.194226
  O       4.167037      0.766405      0.043112
  O      -4.653667      0.900808      0.349845
  O      -4.130057     -1.211533     -0.237602
  C       0.072794     -0.049294     -0.099159
  C       1.030012     -1.076354      0.014697
  C       0.516580      1.282446     -0.184795
  C       2.386614     -0.773150      0.069647
  C       2.814059      0.558810     -0.007102
  C       1.879363      1.587005     -0.138921
  C      -1.349599     -0.412750     -0.141859
  C      -2.379947      0.409778      0.134942
  C      -3.768199     -0.078814      0.043824
  H       0.726790     -2.117703      0.074494
  H      -0.193788      2.094893     -0.304609
  H       2.199522      2.623144     -0.212971
  H      -1.563587     -1.445984     -0.410268
  H      -2.247412      1.443573      0.435573
  H       4.185469     -1.363081      0.210369
  H       4.345328      1.720649     -0.016170
  H      -5.540395      0.490080      0.278026
21
Coordinates from ORCA-job Inputs/CaffeicAcid_CPCM E -648.318886401697
  O       3.311802     -1.789143      0.133165
  O       4.173891      0.751879      0.014488
  O      -4.687946      0.898131      0.252512
  O      -4.107082     -1.244349     -0.175722
  C       0.072771     -0.039200     -0.069314
  C       1.035793     -1.068805      0.006798
  C       0.513490      1.295781     -0.133456
  C       2.394058     -0.774980      0.044696
  C       2.818267      0.567558     -0.014674
  C       1.874168      1.595466     -0.108138
  C      -1.343898     -0.404697     -0.079024
  C      -2.392897      0.421351      0.123580
  C      -3.772388     -0.092375      0.072881
  H       0.729637     -2.110468      0.048628
  H      -0.201814      2.106589     -0.223231
  H       2.204291      2.630045     -0.169072
  H      -1.557598     -1.458121     -0.253484
  H      -2.273983      1.479985      0.334596
  H       4.201972     -1.393275      0.144035
  H       4.383168      1.701069     -0.031338
  H      -5.573702      0.491460      0.177374
21
Coordinates from ORCA-job Inputs/CaffeicAcid_CPCM E -648.319286751147
  O       3.300757     -1.794217      0.088027
  O       4.176856      0.736952      0.008293
  O      -4.705718      0.878765      0.200321
  O      -4.082203     -1.277989     -0.080837
  C       0.071908     -0.023558     -0.051767
  C       1.032836     -1.057992     -0.001009
  C       0.518584      1.311532     -0.095634
  C       2.392272     -0.776033      0.027098
  C       2.821764      0.570598     -0.013258
  C       1.879118      1.601611     -0.078274
  C      -1.339853     -0.387835     -0.050583
  C      -2.405035      0.437280      0.060978
  C      -3.772732     -0.097056      0.030995
  H       0.718706     -2.098297      0.023943
  H      -0.195512      2.125372     -0.161599
  H       2.223920      2.632354     -0.122487
  H      -1.552321     -1.452932     -0.137129
  H      -2.301531      1.511602      0.182187
  H       4.197761     -1.417091      0.096325
  H       4.408898      1.681917     -0.023076
  H      -5.586477      0.458917      0.192786
21
Coordinates from ORCA-job Inputs/CaffeicAcid_CPCM E -648.319558227041
  O       3.298782     -1.794770      0.076145
  O       4.175438      0.741604     -0.001918
  O      -4.698358      0.883412      0.177520
  O      -4.086135     -1.277128     -0.071278
  C       0.071890     -0.025611     -0.040934
  C       1.031543     -1.060066      0.005078
  C       0.520476      1.308819     -0.085038
  C       2.391061     -0.776635      0.022923
  C       2.821959      0.566773     -0.017277
  C       1.882419      1.598932     -0.074153
  C      -1.340846     -0.390343     -0.038946
  C      -2.404082      0.436834      0.064926
  C      -3.771189     -0.098956      0.042364
  H       0.717206     -2.100081      0.033039
  H      -0.192480      2.125081     -0.140531
  H       2.226682      2.629855     -0.114399
  H      -1.552691     -1.455803     -0.122608
  H      -2.301431      1.512030      0.174360
  H       4.193622     -1.409470      0.077802
  H       4.397257      1.688768     -0.031629
  H      -5.579123      0.460654      0.159853
21
Coordinates from ORCA-job Inputs/CaffeicAcid_CPCM E -648.319636339310
  O       3.294984     -1.797922      0.046209
  O       4.176222      0.739956     -0.017879
  O      -4.700597      0.879754      0.129342
  O      -4.081946     -1.285763     -0.026957
  C       0.071831     -0.021024     -0.021775
  C       1.029512     -1.057749      0.008343
  C       0.524367      1.312565     -0.058019
  C       2.389871     -0.777671      0.011922
  C       2.823747      0.563758     -0.021181
  C       1.887326      1.598889     -0.058047
  C      -1.340526     -0.385427     -0.014462
  C      -2.407625      0.440653      0.051048
  C      -3.771073     -0.103623      0.045590
  H       0.712028     -2.096849      0.032821
  H      -0.186024      2.132318     -0.093986
  H       2.235749      2.628662     -0.089055
  H      -1.550826     -1.453469     -0.062318
  H      -2.311874      1.519825      0.115751
  H       4.189708     -1.411481      0.040122
  H       4.396050      1.687674     -0.041468
  H      -5.578904      0.450824      0.119297
21
Coordinates from ORCA-job Inputs/CaffeicAcid_CPCM E -648.319672459988
  O       3.292070     -1.801199      0.015838
  O       4.177647      0.737089     -0.032920
  O      -4.705443      0.874360      0.079456
  O      -4.077121     -1.292692      0.024093
  C       0.071972     -0.016008     -0.003703
  C       1.027846     -1.054999      0.009972
  C       0.527794      1.316892     -0.030568
  C       2.388954     -0.778522      0.000630
  C       2.825415      0.561577     -0.024635
  C       1.891247      1.599583     -0.040950
  C      -1.339994     -0.379655      0.009670
  C      -2.410755      0.444086      0.035007
  C      -3.771402     -0.107195      0.045899
  H       0.707416     -2.093271      0.029446
  H      -0.179930      2.139615     -0.046770
  H       2.243395      2.628306     -0.062396
  H      -1.549018     -1.449068     -0.000101
  H      -2.321579      1.525548      0.052145
  H       4.187074     -1.415422      0.003096
  H       4.397601      1.684907     -0.049981
  H      -5.581188      0.439966      0.082072
21
Coordinates from ORCA-job Inputs/CaffeicAcid_CPCM E -648.319683601538
  O       3.291849     -1.802551     -0.000579
  O       4.178332      0.736066     -0.040832
  O      -4.707907      0.872773      0.050786
  O      -4.075282     -1.293942      0.054968
  C       0.072187     -0.014735      0.005449
  C       1.027553     -1.054386      0.009965
  C       0.528589      1.318077     -0.015698
  C       2.388846     -0.778852     -0.005682
  C       2.825835      0.560888     -0.026439
  C       1.891998      1.599903     -0.031488
  C      -1.339770     -0.377885      0.022445
  C      -2.411274      0.445255      0.026333
  C      -3.771466     -0.107741      0.045614
  H       0.706464     -2.092501      0.026043
  H      -0.178145      2.141783     -0.020513
  H       2.244676      2.628534     -0.047597
  H      -1.548425     -1.447385      0.033571
  H      -2.324378      1.527078      0.017055
  H       4.186817     -1.416959     -0.016091
  H       4.398058      1.684005     -0.054318
  H      -5.582557      0.436475      0.062310
21
Coordinates from ORCA-job Inputs/CaffeicAcid_CPCM E -648.319691236605
  O       3.293036     -1.802314     -0.003265
  O       4.178280      0.736615     -0.041964
  O      -4.707682      0.874526      0.044977
  O      -4.075926     -1.292692      0.061662
  C       0.072314     -0.016043      0.006547
  C       1.028087     -1.055238      0.009429
  C       0.527782      1.317050     -0.013418
  C       2.389229     -0.778815     -0.006863
  C       2.825511      0.561135     -0.026749
  C       1.890996      1.599780     -0.029922
  C      -1.339836     -0.379230      0.024424
  C      -2.410458      0.444943      0.025268
  C      -3.771370     -0.106747      0.045545
  H       0.707822     -2.093620      0.024609
  H      -0.179288      2.140441     -0.016102
  H       2.242349      2.628874     -0.045081
  H      -1.548563     -1.448632      0.038980
  H      -2.322901      1.526699      0.011707
  H       4.187782     -1.416296     -0.018615
  H       4.397333      1.684735     -0.054848
  H      -5.582496      0.438728      0.058980
21
Coordinates from ORCA-job Inputs/CaffeicAcid_CPCM E -648.319685025608
  O       3.293562     -1.801967     -0.003104
  O       4.178221      0.736928     -0.041771
  O      -4.707259      0.875638      0.044753
  O      -4.076535     -1.291982      0.061913
  C       0.072353     -0.016836      0.006237
  C       1.028369     -1.055708      0.009194
  C       0.527345      1.316419     -0.013702
  C       2.389410     -0.778696     -0.006849
  C       2.825335      0.561394     -0.026738
  C       1.890483      1.599708     -0.030059
  C      -1.339943     -0.380194      0.024242
  C      -2.410059      0.444592      0.025710
  C      -3.771346     -0.106215      0.045693
  H       0.708675     -2.094268      0.024251
  H      -0.179924      2.139591     -0.016555
  H       2.240970      2.629097     -0.045317
  H      -1.548604     -1.449576      0.038447
  H      -2.321984      1.526293      0.012701
  H       4.188230     -1.415767     -0.018024
  H       4.397003      1.685119     -0.054719
  H      -5.582304      0.440329      0.058997
