35
Coordinates from ORCA-job Inputs/Catechin_CPCM E -1030.772887428337
  O       0.409409      0.672425     -0.288272
  O      -0.637685     -2.892924      0.004882
  O       4.392049     -1.946700      0.409747
  O       4.658272      2.766367     -0.113298
  O      -4.164861      1.087972      2.081594
  O      -5.839019      0.796514     -0.063551
  C       0.093280     -1.704130      0.324135
  C      -0.322579     -0.529201     -0.583522
  C       1.582505     -1.977880      0.126438
  C       2.384496     -0.712357      0.075177
  C       1.760906      0.519263     -0.146907
  C      -1.796480     -0.174698     -0.436087
  C       3.778177     -0.741199      0.210801
  C       2.508220      1.698232     -0.199304
  C      -2.309753      0.309969      0.780235
  C      -2.668991     -0.318740     -1.527805
  C       4.534431      0.427407      0.148352
  C       3.890008      1.640587     -0.055896
  C      -3.663166      0.626923      0.896397
  C      -4.023248      0.006746     -1.409281
  C      -4.516771      0.476500     -0.195133
  H      -0.093613     -1.456099      1.376641
  H      -0.133920     -0.790673     -1.634444
  H       1.740047     -2.536126     -0.805649
  H       1.927630     -2.625793      0.941783
  H       1.996813      2.641932     -0.360542
  H      -1.642737      0.442181      1.627225
  H      -0.401828     -3.566305      0.666644
  H      -2.297969     -0.690400     -2.480859
  H       5.614097      0.412925      0.255035
  H      -4.672816     -0.114471     -2.270198
  H       5.350858     -1.799265      0.475568
  H       4.078649      3.529272     -0.277775
  H      -3.448341      1.125064      2.732740
  H      -6.286571      0.632683     -0.907276
35
Coordinates from ORCA-job Inputs/Catechin_CPCM E -1030.777778868561
  O       0.425045      0.651455     -0.271008
  O      -0.693041     -2.838659     -0.002846
  O       4.401522     -1.955416      0.375351
  O       4.680756      2.786200     -0.076650
  O      -4.188467      1.128521      2.055093
  O      -5.850710      0.786156     -0.036459
  C       0.101925     -1.698138      0.323630
  C      -0.330365     -0.539058     -0.582316
  C       1.592419     -1.991501      0.112452
  C       2.406803     -0.720607      0.062171
  C       1.784117      0.517472     -0.133862
  C      -1.800553     -0.183774     -0.446979
  C       3.804306     -0.738659      0.193239
  C       2.521625      1.708207     -0.177646
  C      -2.311258      0.318818      0.760226
  C      -2.671779     -0.352058     -1.528612
  C       4.560610      0.436008      0.148147
  C       3.908458      1.657575     -0.036354
  C      -3.664894      0.638489      0.887475
  C      -4.028736     -0.035173     -1.406153
  C      -4.530029      0.460483     -0.200254
  H      -0.073509     -1.420500      1.372329
  H      -0.127948     -0.811408     -1.627215
  H       1.716135     -2.552054     -0.825333
  H       1.945094     -2.650590      0.916546
  H       2.002902      2.651630     -0.326868
  H      -1.643403      0.470003      1.605245
  H      -0.478997     -3.525577      0.648911
  H      -2.299242     -0.736256     -2.474898
  H       5.642354      0.417925      0.253316
  H      -4.689046     -0.174273     -2.258734
  H       5.361786     -1.823984      0.452070
  H       4.107010      3.557255     -0.225686
  H      -3.478749      1.189320      2.716125
  H      -6.322639      0.608168     -0.866852
