35
Coordinates from ORCA-job Inputs/Catechin_CPCM E -1030.777778868561
  O           0.42504459954989      0.65145548477244     -0.27100791582777
  O          -0.69304059645030     -2.83865897134683     -0.00284603094008
  O           4.40152152134823     -1.95541613131539      0.37535077012702
  O           4.68075594746122      2.78619988916416     -0.07665006201256
  O          -4.18846681129170      1.12852102414156      2.05509299876448
  O          -5.85071009957595      0.78615611250996     -0.03645873364980
  C           0.10192470965479     -1.69813843728492      0.32362958634119
  C          -0.33036516465528     -0.53905771335847     -0.58231589139401
  C           1.59241860046638     -1.99150128202192      0.11245201332741
  C           2.40680251765332     -0.72060744095649      0.06217146130312
  C           1.78411667082508      0.51747163744408     -0.13386216245872
  C          -1.80055253553528     -0.18377401680164     -0.44697945377190
  C           3.80430600813961     -0.73865941445089      0.19323942354519
  C           2.52162532618507      1.70820664803760     -0.17764564711598
  C          -2.31125781861005      0.31881768209781      0.76022646371791
  C          -2.67177942630108     -0.35205788930916     -1.52861181493877
  C           4.56060985005087      0.43600810907365      0.14814697738134
  C           3.90845753906158      1.65757485492437     -0.03635413191116
  C          -3.66489401896457      0.63848929731825      0.88747473792133
  C          -4.02873634051737     -0.03517322114551     -1.40615282663992
  C          -4.53002921306216      0.46048252602225     -0.20025429199055
  H          -0.07350939936381     -1.42049973809775      1.37232901207640
  H          -0.12794801687456     -0.81140776625821     -1.62721543037825
  H           1.71613471588601     -2.55205392985482     -0.82533324303365
  H           1.94509376073629     -2.65058979541565      0.91654594846054
  H           2.00290241809708      2.65162995683287     -0.32686784949031
  H          -1.64340274722355      0.47000341798826      1.60524507443765
  H          -0.47899736206079     -3.52557673695661      0.64891111341721
  H          -2.29924169286460     -0.73625569719838     -2.47489843246218
  H           5.64235398399382      0.41792484182614      0.25331556417212
  H          -4.68904553952337     -0.17427301077576     -2.25873383656428
  H           5.36178633261932     -1.82398351743436      0.45207012129431
  H           4.10701032086419      3.55725548731203     -0.22568627581026
  H          -3.47874939093375      1.18931985433336      2.71612486368135
  H          -6.32263864878459      0.60816788618398     -0.86685209967840
