32
Coordinates from ORCA-job Inputs/Quercetin_CPCM E -1103.593366132200
  O          -0.22122848304575     -0.70226656355728      0.07940927522422
  O           0.54504321815564      2.77589059891636     -0.77070393019853
  O          -4.41793324354171      1.60359613635016     -0.29983515209731
  O          -2.14474390745831      2.81880583693401     -0.70202987168536
  O          -4.22358446735359     -3.01308137897696      0.90789440054083
  O           4.49680108031343     -1.88123982511370      1.50019911831915
  O           6.04768629111111     -0.64006946637621     -0.29567475803642
  C          -2.28061331287432      0.51698077382730     -0.13045476760219
  C          -1.58178591026969     -0.67247113383814      0.15119144047747
  C           0.50338039393828      0.41089199938870     -0.25904095482798
  C           1.95016432867096      0.14994033605770     -0.27719388417829
  C          -0.11242803605760      1.61098030281691     -0.49837394069342
  C          -1.56464312286124      1.72750232064525     -0.46515021142592
  C          -3.70468873663760      0.48985116887678     -0.04746742294997
  C          -2.22230034200326     -1.85679442237462      0.49904469781686
  C          -3.62014421806258     -1.84725384071454      0.56752405749228
  C           2.50356692995802     -0.76128020332216      0.64773007434408
  C          -4.36418549198868     -0.68534075486674      0.29611931734460
  C           2.79762823613414      0.77021161730280     -1.21286234835836
  C           3.86572046809837     -1.02408203772745      0.64250239715580
  C           4.16804572313568      0.50310141725911     -1.21460084226214
  C           4.71236026059034     -0.38579379482572     -0.29058703378203
  H          -1.65789564097147     -2.75806838576243      0.70799015339954
  H           1.86795417887700     -1.25758234708853      1.37535518391129
  H          -5.44884088377225     -0.69555769837697      0.35549359706957
  H           2.39102598782650      1.42638738383039     -1.97594387403824
  H           4.82462704620492      0.97215730118908     -1.94108497379143
  H           1.48726385932976      2.68163449707944     -0.54172639371184
  H          -3.75042729336054      2.31790722093187     -0.51242081938204
  H          -5.18920855013382     -2.89094072254645      0.92721005211494
  H           3.85507998318137     -2.28715129955414      2.10809875375914
  H           6.23969556606688     -1.28268883968379      0.41244659525171
