32
Coordinates from ORCA-job Inputs/Quercetin_CPCM E -1103.543471269786
  O      -0.323057     -0.869543     -0.115583
  O       0.745129      2.680067     -0.050016
  O      -4.424857      1.719305      0.162214
  O      -2.056369      2.808192      0.083679
  O      -4.513625     -3.029120      0.008068
  O       4.721147     -0.496648      2.050028
  O       5.953817     -0.776552     -0.427516
  C      -2.329087      0.489380      0.023042
  C      -1.686274     -0.743108     -0.047547
  C       0.446284      0.279618     -0.113997
  C       1.885522     -0.001537     -0.189754
  C      -0.034505      1.536967     -0.050817
  C      -1.511397      1.709261      0.023650
  C      -3.726613      0.543536      0.090548
  C      -2.432967     -1.921432     -0.051637
  C      -3.821833     -1.854299      0.015341
  C       2.629694     -0.176003      0.984434
  C      -4.478297     -0.629209      0.086899
  C       2.528281     -0.057927     -1.437156
  C       3.997666     -0.398653      0.897208
  C       3.902384     -0.299054     -1.512825
  C       4.624362     -0.483571     -0.342432
  H      -1.938559     -2.887432     -0.106488
  H       2.154575     -0.122978      1.960799
  H      -5.560599     -0.566007      0.139725
  H       1.961083      0.076365     -2.356548
  H       4.397970     -0.359967     -2.477577
  H       1.683629      2.431052     -0.089608
  H      -3.776009      2.461206      0.156851
  H      -5.464785     -2.833534      0.060492
  H       5.704409     -0.552452      2.184870
  H       6.494274     -1.541747      0.184711
32
Coordinates from ORCA-job Inputs/Quercetin_CPCM E -1103.572995524029
  O      -0.325395     -0.853882     -0.112061
  O       0.700418      2.681816     -0.050286
  O      -4.415297      1.719671      0.157987
  O      -2.037028      2.863280      0.080824
  O      -4.488996     -3.039151      0.011009
  O       4.703400     -0.521113      2.073422
  O       5.970930     -0.786363     -0.431395
  C      -2.323479      0.509449      0.022976
  C      -1.685502     -0.738751     -0.045489
  C       0.445588      0.286668     -0.112293
  C       1.895995      0.000486     -0.186833
  C      -0.057706      1.543177     -0.050311
  C      -1.517092      1.734897      0.022805
  C      -3.732443      0.549824      0.089690
  C      -2.416996     -1.924820     -0.048958
  C      -3.809455     -1.859575      0.017300
  C       2.638225     -0.178305      0.992091
  C      -4.475266     -0.629364      0.087008
  C       2.540967     -0.060483     -1.432912
  C       4.008031     -0.413077      0.915063
  C       3.912925     -0.316157     -1.506873
  C       4.642757     -0.505640     -0.335333
  H      -1.915658     -2.886056     -0.102133
  H       2.160292     -0.121960      1.965685
  H      -5.558567     -0.573202      0.138900
  H       1.974625      0.078615     -2.349806
  H       4.410129     -0.380578     -2.469830
  H       1.641601      2.434628     -0.090440
  H      -3.740983      2.442922      0.149513
  H      -5.443681     -2.857505      0.062258
  H       5.670872     -0.581874      2.117062
  H       6.378181     -1.483402      0.164418
32
Coordinates from ORCA-job Inputs/Quercetin_CPCM E -1103.580839514709
  O      -0.325503     -0.834153     -0.114265
  O       0.653740      2.689612     -0.050074
  O      -4.399664      1.724625      0.161679
  O      -2.035554      2.891381      0.083123
  O      -4.464474     -3.044989      0.012616
  O       4.681642     -0.552306      2.099763
  O       5.988437     -0.800001     -0.425751
  C      -2.315199      0.524200      0.023441
  C      -1.683705     -0.736063     -0.046249
  C       0.447409      0.297204     -0.116531
  C       1.905300      0.011977     -0.190435
  C      -0.083556      1.548412     -0.051910
  C      -1.528057      1.745931      0.022970
  C      -3.735721      0.553406      0.092869
  C      -2.399332     -1.929112     -0.049819
  C      -3.794905     -1.863773      0.018854
  C       2.643154     -0.173810      0.991142
  C      -4.468145     -0.631197      0.090561
  C       2.552980     -0.055205     -1.432521
  C       4.012951     -0.429281      0.929957
  C       3.919502     -0.337661     -1.496850
  C       4.653331     -0.537662     -0.325717
  H      -1.890871     -2.884933     -0.104462
  H       2.162576     -0.108409      1.962324
  H      -5.552010     -0.584307      0.143943
  H       1.990100      0.093183     -2.349119
  H       4.424203     -0.409956     -2.455177
  H       1.599258      2.454861     -0.095362
  H      -3.708584      2.439718      0.149942
  H      -5.422268     -2.877332      0.064429
  H       5.643061     -0.603693      2.013607
  H       6.281298     -1.446490      0.186081
32
Coordinates from ORCA-job Inputs/Quercetin_CPCM E -1103.582886721716
  O      -0.323162     -0.820100     -0.118163
  O       0.637771      2.703526     -0.058069
  O      -4.397662      1.722774      0.161222
  O      -2.046356      2.899087      0.075903
  O      -4.449489     -3.049990      0.025734
  O       4.665890     -0.595218      2.109417
  O       5.993513     -0.802002     -0.423373
  C      -2.313872      0.529194      0.021196
  C      -1.681390     -0.732327     -0.047325
  C       0.448409      0.310460     -0.123205
  C       1.907730      0.028397     -0.196393
  C      -0.093554      1.558408     -0.058362
  C      -1.536770      1.751333      0.017276
  C      -3.738253      0.551447      0.093922
  C      -2.388802     -1.929577     -0.046311
  C      -3.785205     -1.867213      0.026344
  C       2.640317     -0.173244      0.985265
  C      -4.463705     -0.636203      0.096488
  C       2.558775     -0.035697     -1.436419
  C       4.008207     -0.444751      0.931855
  C       3.921205     -0.335417     -1.494368
  C       4.651637     -0.551710     -0.323747
  H      -1.875390     -2.882426     -0.099838
  H       2.157587     -0.108492      1.955475
  H      -5.547835     -0.596332      0.152643
  H       2.000920      0.126772     -2.353393
  H       4.432490     -0.406604     -2.449454
  H       1.584747      2.475575     -0.108644
  H      -3.701683      2.436057      0.144934
  H      -5.408454     -2.889411      0.079438
  H       5.624165     -0.624299      1.978627
  H       6.269614     -1.477839      0.224382
32
Coordinates from ORCA-job Inputs/Quercetin_CPCM E -1103.583358382452
  O      -0.320426     -0.815471     -0.117583
  O       0.639057      2.710718     -0.065683
  O      -4.396970      1.722002      0.154259
  O      -2.056925      2.893248      0.063589
  O      -4.444780     -3.051157      0.039255
  O       4.657820     -0.622976      2.118439
  O       5.992513     -0.818599     -0.419782
  C      -2.313177      0.527633      0.018274
  C      -1.679298     -0.732032     -0.045825
  C       0.450421      0.316043     -0.125559
  C       1.907786      0.035057     -0.197791
  C      -0.093638      1.562716     -0.063629
  C      -1.540026      1.748907      0.010308
  C      -3.738590      0.548939      0.091268
  C      -2.384624     -1.930400     -0.039715
  C      -3.780958     -1.868706      0.033749
  C       2.634920     -0.184735      0.982740
  C      -4.461132     -0.639265      0.098872
  C       2.563560     -0.016332     -1.436005
  C       4.002238     -0.459357      0.934312
  C       3.925535     -0.315713     -1.488359
  C       4.649368     -0.552059     -0.318641
  H      -1.869384     -2.882490     -0.089645
  H       2.149782     -0.125931      1.952494
  H      -5.545343     -0.603218      0.155527
  H       2.010573      0.158934     -2.353807
  H       4.443477     -0.380561     -2.440633
  H       1.586175      2.485674     -0.118144
  H      -3.701239      2.437291      0.135632
  H      -5.403890     -2.892213      0.092982
  H       5.620307     -0.591755      1.984367
  H       6.248261     -1.530012      0.197790
32
Coordinates from ORCA-job Inputs/Quercetin_CPCM E -1103.583633536800
  O      -0.317481     -0.811231     -0.121010
  O       0.639020      2.717876     -0.090987
  O      -4.395024      1.720709      0.144876
  O      -2.065247      2.888691      0.040760
  O      -4.438604     -3.052608      0.072761
  O       4.638124     -0.695274      2.120807
  O       5.993600     -0.821196     -0.396361
  C      -2.312341      0.525953      0.010559
  C      -1.676658     -0.731648     -0.045102
  C       0.451685      0.322012     -0.138299
  C       1.907092      0.041414     -0.205441
  C      -0.093911      1.567658     -0.083843
  C      -1.542332      1.747269     -0.009901
  C      -3.738422      0.546499      0.089467
  C      -2.379612     -1.931325     -0.025942
  C      -3.775442     -1.870382      0.053202
  C       2.621533     -0.209841      0.975279
  C      -4.457635     -0.642378      0.110411
  C       2.576738      0.021198     -1.438459
  C       3.987971     -0.486850      0.934967
  C       3.938590     -0.278673     -1.480224
  C       4.646279     -0.549363     -0.309149
  H      -1.862328     -2.882652     -0.069598
  H       2.128154     -0.172406      1.942228
  H      -5.541742     -0.611154      0.171707
  H       2.035076      0.222821     -2.357685
  H       4.471685     -0.321720     -2.425582
  H       1.586070      2.494800     -0.144927
  H      -3.696702      2.435441      0.116812
  H      -5.397636     -2.895209      0.129912
  H       5.597660     -0.583652      1.989141
  H       6.223229     -1.570603      0.182680
32
Coordinates from ORCA-job Inputs/Quercetin_CPCM E -1103.583790069399
  O      -0.313874     -0.807941     -0.111247
  O       0.634836      2.724267     -0.133799
  O      -4.395953      1.718909      0.125909
  O      -2.071416      2.888451     -0.008064
  O      -4.430544     -3.055167      0.114094
  O       4.618263     -0.787461      2.114180
  O       5.994428     -0.813465     -0.374481
  C      -2.312016      0.525503      0.004313
  C      -1.673200     -0.730423     -0.034741
  C       0.452114      0.327494     -0.145617
  C       1.907200      0.047845     -0.207962
  C      -0.095314      1.572652     -0.108365
  C      -1.543981      1.748288     -0.031467
  C      -3.738281      0.545046      0.083326
  C      -2.373655     -1.931412      0.000184
  C      -3.769342     -1.872173      0.078335
  C       2.608129     -0.244914      0.971125
  C      -4.454495     -0.645127      0.119151
  C       2.591086      0.070408     -1.434294
  C       3.973591     -0.524225      0.934322
  C       3.953302     -0.228611     -1.471179
  C       4.644833     -0.542640     -0.301699
  H      -1.854037     -2.881990     -0.030983
  H       2.105092     -0.240675      1.933852
  H      -5.538713     -0.617668      0.180741
  H       2.059591      0.304352     -2.351730
  H       4.499379     -0.238972     -2.410070
  H       1.582069      2.502258     -0.188476
  H      -3.696016      2.433199      0.093915
  H      -5.389753     -2.898983      0.170623
  H       5.571425     -0.615204      2.000313
  H       6.206645     -1.597444      0.162850
32
Coordinates from ORCA-job Inputs/Quercetin_CPCM E -1103.584020764771
  O      -0.303603     -0.797538     -0.092044
  O       0.620177      2.739266     -0.249198
  O      -4.402239      1.710532      0.051121
  O      -2.085751      2.888194     -0.108237
  O      -4.403514     -3.060410      0.251950
  O       4.553901     -1.046255      2.073480
  O       5.996117     -0.788889     -0.315015
  C      -2.311739      0.525010     -0.024599
  C      -1.663086     -0.725389     -0.012898
  C       0.452867      0.342521     -0.173069
  C       1.908802      0.067646     -0.216832
  C      -0.101035      1.584999     -0.183598
  C      -1.550379      1.751474     -0.112828
  C      -3.737635      0.540297      0.060272
  C      -2.355202     -1.928904      0.076255
  C      -3.750203     -1.875706      0.160259
  C       2.568486     -0.347872      0.949524
  C      -4.444551     -0.652715      0.151440
  C       2.634964      0.216752     -1.411681
  C       3.931753     -0.632075      0.923172
  C       3.998442     -0.079981     -1.435598
  C       4.643701     -0.520464     -0.281250
  H      -1.828550     -2.876145      0.083469
  H       2.034518     -0.443469      1.890556
  H      -5.528730     -0.634182      0.217667
  H       2.132908      0.544154     -2.316926
  H       4.579302      0.006534     -2.349292
  H       1.568873      2.520807     -0.295339
  H      -3.703195      2.424587     -0.023276
  H      -5.363000     -2.907714      0.311720
  H       5.486522     -0.763442      2.036375
  H       6.172468     -1.647443      0.107477
32
Coordinates from ORCA-job Inputs/Quercetin_CPCM E -1103.584805813731
  O      -0.293026     -0.788177     -0.043058
  O       0.601752      2.740622     -0.420307
  O      -4.410734      1.696599     -0.060486
  O      -2.100712      2.878359     -0.294000
  O      -4.377697     -3.053056      0.440131
  O       4.479770     -1.380908      1.965144
  O       6.002698     -0.729359     -0.237510
  C      -2.312135      0.521954     -0.061624
  C      -1.652974     -0.719121      0.031637
  C       0.453345      0.351048     -0.197990
  C       1.910743      0.082376     -0.218622
  C      -0.108193      1.587422     -0.287502
  C      -1.557306      1.747213     -0.226779
  C      -3.737526      0.534310      0.020975
  C      -2.337078     -1.919778      0.196378
  C      -3.732174     -1.871718      0.274101
  C       2.520247     -0.503559      0.902689
  C      -4.435912     -0.656576      0.185743
  C       2.687667      0.410657     -1.345046
  C       3.883712     -0.779884      0.886055
  C       4.055259      0.128216     -1.356659
  C       4.648018     -0.479096     -0.251666
  H      -1.803456     -2.860662      0.265126
  H       1.946990     -0.742078      1.793631
  H      -5.520324     -0.644743      0.250002
  H       2.219149      0.864054     -2.213246
  H       4.675347      0.355689     -2.218610
  H       1.552736      2.527536     -0.444851
  H      -3.713725      2.408781     -0.170742
  H      -5.337801     -2.901556      0.492629
  H       5.381991     -1.022358      2.049841
  H       6.162742     -1.648030      0.037673
32
Coordinates from ORCA-job Inputs/Quercetin_CPCM E -1103.584623473819
  O      -0.283286     -0.777323      0.038050
  O       0.578406      2.713200     -0.649933
  O      -4.421782      1.670535     -0.216960
  O      -2.110545      2.845613     -0.564704
  O      -4.356239     -3.020919      0.684707
  O       4.415455     -1.772270      1.731468
  O       6.007843     -0.632112     -0.114141
  C      -2.313754      0.514645     -0.109984
  C      -1.643811     -0.707254      0.099711
  C       0.452528      0.349288     -0.220410
  C       1.912764      0.087929     -0.212425
  C      -0.116390      1.570904     -0.423425
  C      -1.562829      1.728953     -0.380342
  C      -3.737482      0.525659     -0.038380
  C      -2.321875     -1.894196      0.364397
  C      -3.717720     -1.852092      0.423221
  C       2.467762     -0.712143      0.804773
  C      -4.429971     -0.653894      0.221565
  C       2.742403      0.642380     -1.204781
  C       3.834195     -0.962157      0.797827
  C       4.118621      0.393328     -1.202890
  C       4.657727     -0.413671     -0.203931
  H      -1.782590     -2.821264      0.520825
  H       1.851050     -1.134710      1.591470
  H      -5.514937     -0.646240      0.276372
  H       2.304750      1.246507     -1.993990
  H       4.774792      0.805190     -1.962876
  H       1.532571      2.510723     -0.633768
  H      -3.728635      2.379214     -0.359767
  H      -5.317073     -2.867787      0.719290
  H       5.279371     -1.399153      1.971923
  H       6.180074     -1.582709     -0.009834
32
Coordinates from ORCA-job Inputs/Quercetin_CPCM E -1103.584511078665
  O      -0.293379     -0.785406      0.036787
  O       0.578449      2.727416     -0.493839
  O      -4.420280      1.693332     -0.141215
  O      -2.093227      2.874055     -0.457913
  O      -4.381581     -3.039620      0.517626
  O       4.490163     -1.509126      1.875575
  O       6.009909     -0.642995     -0.206885
  C      -2.315961      0.526429     -0.076951
  C      -1.653732     -0.709690      0.086055
  C       0.451295      0.343230     -0.175738
  C       1.913766      0.067028     -0.197590
  C      -0.114848      1.576503     -0.330305
  C      -1.558046      1.748003     -0.288799
  C      -3.738466      0.538828     -0.020177
  C      -2.340052     -1.904018      0.286630
  C      -3.737519     -1.860222      0.325055
  C       2.511467     -0.609020      0.887060
  C      -4.441704     -0.649104      0.171767
  C       2.696086      0.475354     -1.290102
  C       3.878270     -0.860715      0.853383
  C       4.070572      0.214772     -1.328779
  C       4.661541     -0.450388     -0.256082
  H      -1.807861     -2.840465      0.406288
  H       1.927946     -0.919312      1.747090
  H      -5.527207     -0.631823      0.211259
  H       2.221284      0.963360     -2.135849
  H       4.679615      0.520839     -2.172634
  H       1.532365      2.532158     -0.441023
  H      -3.730746      2.410308     -0.219692
  H      -5.342388     -2.882877      0.542649
  H       5.415365     -1.231932      1.943790
  H       6.210297     -1.550727      0.085620
32
Coordinates from ORCA-job Inputs/Quercetin_CPCM E -1103.585188235212
  O      -0.281101     -0.749226      0.001122
  O       0.564804      2.788407     -0.425462
  O      -4.430064      1.674072     -0.135057
  O      -2.128635      2.881481     -0.362385
  O      -4.337156     -3.057358      0.505943
  O       4.438209     -1.470057      1.937643
  O       6.005356     -0.767884     -0.250484
  C      -2.314492      0.530717     -0.077146
  C      -1.642176     -0.698660      0.061384
  C       0.460690      0.386211     -0.193170
  C       1.916967      0.106560     -0.221549
  C      -0.120682      1.615437     -0.309998
  C      -1.573929      1.757505     -0.264370
  C      -3.742050      0.524430     -0.008729
  C      -2.310397     -1.902908      0.254975
  C      -3.707418     -1.871812      0.315173
  C       2.506740     -0.549501      0.872206
  C      -4.426229     -0.669872      0.184090
  C       2.712600      0.471105     -1.323011
  C       3.867105     -0.837539      0.863326
  C       4.074999      0.163692     -1.335862
  C       4.651876     -0.497823     -0.255404
  H      -1.764885     -2.833805      0.356986
  H       1.919900     -0.816733      1.745503
  H      -5.511530     -0.669722      0.234842
  H       2.260538      0.938358     -2.191638
  H       4.700792      0.411459     -2.188065
  H       1.519099      2.615816     -0.349948
  H      -3.746212      2.393441     -0.268159
  H      -5.299726     -2.919261      0.545759
  H       5.340395     -1.108316      2.037021
  H       6.148007     -1.704036     -0.012477
32
Coordinates from ORCA-job Inputs/Quercetin_CPCM E -1103.586151831352
  O      -0.283789     -0.761335      0.021269
  O       0.575218      2.755240     -0.521723
  O      -4.429248      1.672134     -0.170030
  O      -2.118732      2.868444     -0.447411
  O      -4.348494     -3.044432      0.572275
  O       4.428854     -1.577347      1.876005
  O       6.006879     -0.712965     -0.215872
  C      -2.315316      0.524862     -0.089732
  C      -1.644802     -0.702773      0.077896
  C       0.457827      0.370599     -0.195445
  C       1.913920      0.098651     -0.212022
  C      -0.117478      1.597022     -0.345566
  C      -1.568963      1.746917     -0.308222
  C      -3.741018      0.524532     -0.023002
  C      -2.317900     -1.900235      0.298614
  C      -3.714722     -1.864868      0.355347
  C       2.495038     -0.606058      0.857926
  C      -4.429838     -0.663979      0.194782
  C       2.719223      0.537790     -1.276671
  C       3.857705     -0.880043      0.846155
  C       4.087332      0.252969     -1.289502
  C       4.654566     -0.463503     -0.238984
  H      -1.775811     -2.830452      0.423241
  H       1.897724     -0.931994      1.703709
  H      -5.515051     -0.658376      0.243983
  H       2.272875      1.066406     -2.113504
  H       4.720447      0.566748     -2.113753
  H       1.530270      2.571644     -0.459907
  H      -3.745003      2.389196     -0.303682
  H      -5.310523     -2.899946      0.607378
  H       5.343377     -1.261283      1.991315
  H       6.166823     -1.649389     -0.001808
32
Coordinates from ORCA-job Inputs/Quercetin_CPCM E -1103.586515788402
  O      -0.281420     -0.758563      0.034830
  O       0.569355      2.748199     -0.578385
  O      -4.429712      1.665377     -0.201539
  O      -2.121383      2.860095     -0.506757
  O      -4.342344     -3.037139      0.627623
  O       4.406244     -1.656090      1.833263
  O       6.007799     -0.694223     -0.194201
  C      -2.314716      0.523062     -0.100657
  C      -1.642245     -0.700534      0.090883
  C       0.458186      0.369758     -0.205117
  C       1.913544      0.101251     -0.211205
  C      -0.120094      1.592661     -0.378347
  C      -1.570563      1.742214     -0.342831
  C      -3.739743      0.521575     -0.034284
  C      -2.313466     -1.894687      0.334163
  C      -3.710557     -1.860644      0.389174
  C       2.482341     -0.650221      0.834333
  C      -4.427364     -0.663729      0.205667
  C       2.731307      0.589515     -1.244030
  C       3.846129     -0.917228      0.828849
  C       4.101443      0.312747     -1.250643
  C       4.657131     -0.447884     -0.225421
  H      -1.770213     -2.821652      0.476401
  H       1.874232     -1.016656      1.655242
  H      -5.512569     -0.657791      0.254196
  H       2.294196      1.154101     -2.062322
  H       4.742605      0.666338     -2.052068
  H       1.524945      2.570435     -0.503827
  H      -3.746865      2.380936     -0.344970
  H      -5.304626     -2.893104      0.659009
  H       5.323356     -1.357280      1.964513
  H       6.166462     -1.636666     -0.008485
32
Coordinates from ORCA-job Inputs/Quercetin_CPCM E -1103.587052902923
  O      -0.275657     -0.744256      0.056417
  O       0.552700      2.750625     -0.653764
  O      -4.433631      1.650592     -0.246579
  O      -2.133745      2.847882     -0.584174
  O      -4.324612     -3.029411      0.700732
  O       4.364418     -1.752569      1.785482
  O       6.009312     -0.686879     -0.179923
  C      -2.314239      0.522286     -0.115501
  C      -1.636519     -0.692874      0.109917
  C       0.461353      0.378022     -0.216282
  C       1.913626      0.112505     -0.209055
  C      -0.126707      1.594077     -0.421749
  C      -1.577331      1.737250     -0.390478
  C      -3.738773      0.514209     -0.049807
  C      -2.301325     -1.883624      0.383618
  C      -3.699238     -1.855690      0.434852
  C       2.466408     -0.701015      0.798897
  C      -4.421534     -0.667428      0.220236
  C       2.749816      0.659492     -1.196564
  C       3.831021     -0.964072      0.806335
  C       4.119955      0.383554     -1.193507
  C       4.660902     -0.435689     -0.206723
  H      -1.753877     -2.804035      0.549854
  H       1.843687     -1.116144      1.584541
  H      -5.506808     -0.663144      0.266284
  H       2.329317      1.265696     -1.993801
  H       4.771126      0.781181     -1.965632
  H       1.508706      2.594273     -0.545578
  H      -3.755432      2.366074     -0.406831
  H      -5.287970     -2.890885      0.723339
  H       5.293863     -1.499252      1.924811
  H       6.162582     -1.636574     -0.026309
32
Coordinates from ORCA-job Inputs/Quercetin_CPCM E -1103.587493485968
  O      -0.271142     -0.728166      0.066657
  O       0.535605      2.762208     -0.694031
  O      -4.439440      1.633506     -0.294594
  O      -2.148279      2.835721     -0.647821
  O      -4.306270     -3.018352      0.777859
  O       4.314255     -1.836506      1.743159
  O       6.017309     -0.669795     -0.165300
  C      -2.314987      0.521069     -0.133932
  C      -1.632018     -0.684927      0.120728
  C       0.465440      0.387643     -0.232740
  C       1.913317      0.120347     -0.219074
  C      -0.133111      1.598191     -0.457397
  C      -1.585173      1.732007     -0.433527
  C      -3.739515      0.505637     -0.067549
  C      -2.289514     -1.871504      0.425813
  C      -3.688072     -1.849246      0.479052
  C       2.451897     -0.745484      0.752205
  C      -4.416415     -0.671191      0.234604
  C       2.768278      0.710357     -1.166083
  C       3.817266     -1.005792      0.779852
  C       4.137496      0.434837     -1.145967
  C       4.666722     -0.427247     -0.189937
  H      -1.737392     -2.784625      0.615002
  H       1.815447     -1.199457      1.504390
  H      -5.501626     -0.668438      0.281339
  H       2.367483      1.343232     -1.952347
  H       4.799701      0.867212     -1.889686
  H       1.486601      2.638059     -0.522464
  H      -3.765974      2.347416     -0.480130
  H      -5.270600     -2.885996      0.795406
  H       5.255471     -1.634946      1.890329
  H       6.178630     -1.621591     -0.030757
32
Coordinates from ORCA-job Inputs/Quercetin_CPCM E -1103.587570317448
  O      -0.268885     -0.716029      0.078200
  O       0.528255      2.767978     -0.721131
  O      -4.445704      1.620340     -0.329184
  O      -2.158337      2.825641     -0.692191
  O      -4.295169     -3.010769      0.825447
  O       4.285450     -1.894122      1.708699
  O       6.022390     -0.664890     -0.159069
  C      -2.316930      0.519611     -0.145221
  C      -1.629964     -0.678657      0.130354
  C       0.467276      0.396986     -0.233981
  C       1.913672      0.128864     -0.221336
  C      -0.136343      1.602689     -0.472865
  C      -1.590214      1.728151     -0.459391
  C      -3.742184      0.499345     -0.080866
  C      -2.282661     -1.862560      0.454561
  C      -3.681374     -1.844844      0.506306
  C       2.444968     -0.766694      0.725535
  C      -4.414297     -0.674881      0.240191
  C       2.780199      0.746585     -1.141616
  C       3.809620     -1.031845      0.760760
  C       4.147155      0.465173     -1.115235
  C       4.669215     -0.425179     -0.180713
  H      -1.727020     -2.770067      0.659954
  H       1.802066     -1.243239      1.457958
  H      -5.499623     -0.676019      0.285309
  H       2.391512      1.397246     -1.918812
  H       4.817757      0.916332     -1.840290
  H       1.473662      2.661951     -0.512164
  H      -3.773488      2.333461     -0.527299
  H      -5.260167     -2.883303      0.837983
  H       5.230198     -1.715397      1.865049
  H       6.190356     -1.617680     -0.041882
32
Coordinates from ORCA-job Inputs/Quercetin_CPCM E -1103.587582233337
  O      -0.269008     -0.713892      0.084115
  O       0.528459      2.770646     -0.709433
  O      -4.446712      1.619505     -0.334136
  O      -2.158851      2.826921     -0.688578
  O      -4.295650     -3.012425      0.817936
  O       4.290617     -1.882902      1.716543
  O       6.021448     -0.673294     -0.172818
  C      -2.317538      0.520309     -0.143361
  C      -1.630192     -0.677400      0.133584
  C       0.466960      0.399802     -0.225739
  C       1.914118      0.131049     -0.217725
  C      -0.136683      1.605441     -0.463386
  C      -1.590496      1.730029     -0.452788
  C      -3.743161      0.499116     -0.083918
  C      -2.282778     -1.862251      0.454878
  C      -3.681588     -1.845719      0.501924
  C       2.448438     -0.758693      0.732666
  C      -4.414853     -0.676254      0.233963
  C       2.778302      0.741855     -1.145314
  C       3.812820     -1.027557      0.763253
  C       4.144020      0.455993     -1.124314
  C       4.668916     -0.429820     -0.186373
  H      -1.726927     -2.769426      0.661149
  H       1.808773     -1.228830      1.472005
  H      -5.500334     -0.679275      0.275444
  H       2.387864      1.388009     -1.925274
  H       4.813111      0.899709     -1.855335
  H       1.472032      2.665308     -0.491850
  H      -3.773839      2.332967     -0.529457
  H      -5.260819     -2.885775      0.826610
  H       5.236121     -1.703788      1.866971
  H       6.188821     -1.625183     -0.048186
32
Coordinates from ORCA-job Inputs/Quercetin_CPCM E -1103.587586988016
  O      -0.268869     -0.713266      0.087391
  O       0.529119      2.770194     -0.709641
  O      -4.447179      1.618668     -0.339285
  O      -2.159172      2.825772     -0.692853
  O      -4.295796     -3.011335      0.821418
  O       4.292015     -1.887930      1.711109
  O       6.020677     -0.673866     -0.174365
  C      -2.317901      0.519758     -0.144697
  C      -1.630130     -0.676861      0.135486
  C       0.466434      0.400341     -0.223841
  C       1.914063      0.131734     -0.216834
  C      -0.136841      1.605589     -0.463153
  C      -1.590538      1.729376     -0.455106
  C      -3.743629      0.498861     -0.086708
  C      -2.282705     -1.861383      0.458524
  C      -3.681437     -1.845120      0.503778
  C       2.448393     -0.759996      0.731452
  C      -4.414924     -0.676393      0.232637
  C       2.778437      0.744366     -1.143468
  C       3.812790     -1.030071      0.760495
  C       4.143650      0.457646     -1.123834
  C       4.668387     -0.430627     -0.187585
  H      -1.726716     -2.767921      0.667216
  H       1.809548     -1.231772      1.470517
  H      -5.500452     -0.680702      0.273253
  H       2.388127      1.393609     -1.920926
  H       4.813976      0.902656     -1.852933
  H       1.471317      2.665342     -0.485700
  H      -3.773775      2.331978     -0.534073
  H      -5.260968     -2.884653      0.828541
  H       5.236320     -1.704670      1.864444
  H       6.189174     -1.625152     -0.048200
32
Coordinates from ORCA-job Inputs/Quercetin_CPCM E -1103.587615586958
  O      -0.268541     -0.712910      0.089059
  O       0.529423      2.769913     -0.710545
  O      -4.447094      1.618071     -0.342499
  O      -2.159443      2.825064     -0.695917
  O      -4.295558     -3.010639      0.824012
  O       4.292011     -1.891476      1.707597
  O       6.019896     -0.674489     -0.176861
  C      -2.317907      0.519396     -0.145629
  C      -1.629866     -0.676636      0.136252
  C       0.466217      0.400565     -0.223295
  C       1.913983      0.132273     -0.216304
  C      -0.137059      1.605714     -0.463167
  C      -1.590549      1.729126     -0.456257
  C      -3.743620      0.498639     -0.088354
  C      -2.282351     -1.860959      0.460546
  C      -3.681040     -1.844789      0.505103
  C       2.448237     -0.760882      0.730519
  C      -4.414662     -0.676471      0.232143
  C       2.778395      0.746091     -1.142264
  C       3.812649     -1.031564      0.758823
  C       4.143308      0.459050     -1.123456
  C       4.668041     -0.431205     -0.188627
  H      -1.726236     -2.767100      0.670599
  H       1.809960     -1.233976      1.469252
  H      -5.500209     -0.681613      0.272490
  H       2.388157      1.398094     -1.917422
  H       4.814457      0.904804     -1.851334
  H       1.470523      2.666007     -0.481375
  H      -3.773451      2.331140     -0.537518
  H      -5.260714     -2.883819      0.830459
  H       5.235327     -1.706105      1.863840
  H       6.189108     -1.625137     -0.046811
32
Coordinates from ORCA-job Inputs/Quercetin_CPCM E -1103.587598998176
  O      -0.267765     -0.711632      0.091494
  O       0.529138      2.770320     -0.712796
  O      -4.447155      1.616579     -0.347497
  O      -2.160381      2.823919     -0.701634
  O      -4.294268     -3.009769      0.828695
  O       4.290747     -1.898284      1.701590
  O       6.018760     -0.676744     -0.181838
  C      -2.317812      0.519000     -0.147288
  C      -1.629211     -0.675944      0.137562
  C       0.466267      0.401607     -0.222723
  C       1.914061      0.133839     -0.215320
  C      -0.137558      1.606367     -0.463914
  C      -1.590855      1.728768     -0.459349
  C      -3.743500      0.497908     -0.090896
  C      -2.281233     -1.860012      0.464009
  C      -3.679912     -1.844375      0.507601
  C       2.447921     -0.762455      0.728598
  C      -4.413992     -0.676968      0.231632
  C       2.778814      0.749852     -1.139654
  C       3.812193     -1.034296      0.755912
  C       4.143265      0.461768     -1.122203
  C       4.667726     -0.432319     -0.190341
  H      -1.724688     -2.765372      0.676272
  H       1.810126     -1.237965      1.466181
  H      -5.499561     -0.683373      0.271554
  H       2.388837      1.405699     -1.911629
  H       4.815458      0.908525     -1.848505
  H       1.468332      2.669165     -0.474575
  H      -3.773441      2.329722     -0.542394
  H      -5.259452     -2.883100      0.834148
  H       5.232294     -1.709998      1.864279
  H       6.188236     -1.626257     -0.043914
32
Coordinates from ORCA-job Inputs/Quercetin_CPCM E -1103.587599708090
  O      -0.267485     -0.711523      0.091775
  O       0.529686      2.770377     -0.712357
  O      -4.446854      1.616573     -0.347511
  O      -2.160405      2.824369     -0.700152
  O      -4.294092     -3.010113      0.827433
  O       4.291524     -1.898236      1.700679
  O       6.017869     -0.679222     -0.187664
  C      -2.317596      0.519087     -0.146967
  C      -1.629007     -0.675906      0.137565
  C       0.466384      0.401744     -0.222476
  C       1.914102      0.134156     -0.215130
  C      -0.137570      1.606666     -0.462981
  C      -1.590722      1.729158     -0.458336
  C      -3.743257      0.497910     -0.090824
  C      -2.280981     -1.860163      0.463472
  C      -3.679664     -1.844578      0.506918
  C       2.448539     -0.761689      0.728865
  C      -4.413739     -0.677065      0.231322
  C       2.778183      0.749429     -1.140521
  C       3.812695     -1.033918      0.755147
  C       4.142440      0.460703     -1.124540
  C       4.667540     -0.433542     -0.192936
  H      -1.724346     -2.765550      0.675370
  H       1.811607     -1.236736      1.467493
  H      -5.499313     -0.683904      0.271136
  H       2.387456      1.406133     -1.911358
  H       4.814447      0.906295     -1.851734
  H       1.468091      2.669964     -0.470698
  H      -3.773131      2.329739     -0.542473
  H      -5.259262     -2.883329      0.832881
  H       5.231124     -1.705716      1.869378
  H       6.187128     -1.626938     -0.037718
32
Coordinates from ORCA-job Inputs/Quercetin_CPCM E -1103.587614648796
  O      -0.266155     -0.711202      0.090175
  O       0.531929      2.771248     -0.709955
  O      -4.445479      1.617971     -0.339958
  O      -2.160388      2.827510     -0.689525
  O      -4.292552     -3.013205      0.817169
  O       4.294804     -1.895976      1.698137
  O       6.013516     -0.693525     -0.216814
  C      -2.316393      0.520002     -0.144443
  C      -1.627948     -0.675957      0.135753
  C       0.467211      0.402469     -0.223133
  C       1.914533      0.135387     -0.216156
  C      -0.137465      1.608174     -0.459701
  C      -1.590049      1.731388     -0.452870
  C      -3.741961      0.498362     -0.087490
  C      -2.279516     -1.861584      0.457350
  C      -3.678223     -1.846312      0.501332
  C       2.451691     -0.756801      0.729812
  C      -4.412381     -0.677645      0.230781
  C       2.775655      0.745212     -1.147554
  C       3.815049     -1.031035      0.751727
  C       4.139051      0.453265     -1.137817
  C       4.666952     -0.439976     -0.205916
  H      -1.722361     -2.767568      0.665287
  H       1.818290     -1.227924      1.473997
  H      -5.497915     -0.685842      0.271268
  H       2.381300      1.402915     -1.915590
  H       4.809468      0.891810     -1.870758
  H       1.467512      2.673364     -0.456571
  H      -3.771854      2.332072     -0.532465
  H      -5.257680     -2.886161      0.823994
  H       5.221411     -1.677896      1.902817
  H       6.181342     -1.628364      0.000173
32
Coordinates from ORCA-job Inputs/Quercetin_CPCM E -1103.587650047106
  O      -0.264393     -0.710807      0.088013
  O       0.535233      2.772604     -0.705556
  O      -4.443439      1.620340     -0.327545
  O      -2.159783      2.832743     -0.670777
  O      -4.290600     -3.018037      0.800095
  O       4.300594     -1.892584      1.694524
  O       6.006645     -0.716123     -0.259431
  C      -2.314485      0.521830     -0.139136
  C      -1.626526     -0.675939      0.133679
  C       0.468670      0.403461     -0.223441
  C       1.915304      0.136533     -0.217874
  C      -0.136881      1.610309     -0.454261
  C      -1.588748      1.735119     -0.442438
  C      -3.739972      0.499314     -0.081363
  C      -2.277684     -1.863672      0.447839
  C      -3.676467     -1.848871      0.492403
  C       2.456810     -0.749726      0.731459
  C      -4.410582     -0.678322      0.230084
  C       2.771896      0.737661     -1.158516
  C       3.818837     -1.026883      0.746682
  C       4.134086      0.440911     -1.158008
  C       4.666147     -0.449939     -0.225170
  H      -1.719933     -2.770752      0.649279
  H       1.828337     -1.214306      1.483920
  H      -5.496073     -0.687901      0.270996
  H       2.372038      1.394934     -1.923978
  H       4.801122      0.868901     -1.900245
  H       1.467872      2.677144     -0.440760
  H      -3.770082      2.335625     -0.517271
  H      -5.255697     -2.890876      0.808894
  H       5.203172     -1.636554      1.954594
  H       6.175971     -1.621958      0.056368
32
Coordinates from ORCA-job Inputs/Quercetin_CPCM E -1103.587686271430
  O      -0.262724     -0.711215      0.085079
  O       0.538407      2.772561     -0.704713
  O      -4.441132      1.622518     -0.317980
  O      -2.158981      2.835850     -0.659719
  O      -4.289156     -3.020342      0.791203
  O       4.305504     -1.899838      1.681936
  O       6.000351     -0.733959     -0.293660
  C      -2.312683      0.522717     -0.136530
  C      -1.625200     -0.676254      0.131287
  C       0.469967      0.403166     -0.226126
  C       1.916098      0.136398     -0.221037
  C      -0.136304      1.611012     -0.452583
  C      -1.587358      1.737085     -0.437614
  C      -3.738040      0.500236     -0.076759
  C      -2.276123     -1.865113      0.441514
  C      -3.674898     -1.850089      0.487816
  C       2.460371     -0.748441      0.728356
  C      -4.408838     -0.678102      0.231299
  C       2.769746      0.733143     -1.166862
  C       3.821315     -1.027547      0.738268
  C       4.131081      0.433967     -1.173111
  C       4.665772     -0.457720     -0.241440
  H      -1.717914     -2.772888      0.638491
  H       1.835727     -1.211071      1.485189
  H      -5.494244     -0.688943      0.273889
  H       2.365641      1.392697     -1.928006
  H       4.796531      0.855921     -1.920231
  H       1.467099      2.680572     -0.425385
  H      -3.767695      2.338529     -0.505591
  H      -5.254129     -2.892426      0.802639
  H       5.176683     -1.606072      2.002027
  H       6.176521     -1.602177      0.111412
32
Coordinates from ORCA-job Inputs/Quercetin_CPCM E -1103.587880976785
  O      -0.263320     -0.720639      0.063620
  O       0.540701      2.764523     -0.719538
  O      -4.436348      1.629604     -0.297180
  O      -2.154399      2.833080     -0.666050
  O      -4.292299     -3.013518      0.810301
  O       4.315794     -1.954865      1.618039
  O       6.004242     -0.716049     -0.281873
  C      -2.310719      0.520670     -0.141464
  C      -1.625828     -0.681088      0.119897
  C       0.471432      0.391913     -0.250211
  C       1.917270      0.123467     -0.241851
  C      -0.134390      1.601571     -0.473651
  C      -1.584534      1.731506     -0.453078
  C      -3.735466      0.503624     -0.066166
  C      -2.278374     -1.867093      0.437091
  C      -3.676693     -1.846256      0.498756
  C       2.458340     -0.778612      0.695167
  C      -4.408345     -0.671296      0.249657
  C       2.775282      0.735862     -1.173994
  C       3.819991     -1.046899      0.709560
  C       4.140751      0.455070     -1.169790
  C       4.672127     -0.444747     -0.244244
  H      -1.721442     -2.776563      0.629812
  H       1.829649     -1.261465      1.435543
  H      -5.493165     -0.677451      0.304994
  H       2.369456      1.398928     -1.931147
  H       4.809203      0.896070     -1.903078
  H       1.468815      2.672180     -0.440140
  H      -3.762233      2.344300     -0.487603
  H      -5.256417     -2.880953      0.835114
  H       5.108817     -1.597903      2.057320
  H       6.183494     -1.532795      0.219244
32
Coordinates from ORCA-job Inputs/Quercetin_CPCM E -1103.588096980194
  O      -0.262815     -0.730800      0.046935
  O       0.547389      2.755522     -0.727620
  O      -4.429071      1.636507     -0.279685
  O      -2.145775      2.830939     -0.665140
  O      -4.295576     -3.007142      0.825535
  O       4.347748     -2.009953      1.537280
  O       6.005650     -0.707366     -0.285748
  C      -2.306730      0.519032     -0.140772
  C      -1.625082     -0.685793      0.113962
  C       0.474691      0.380424     -0.266605
  C       1.919818      0.108763     -0.263171
  C      -0.128970      1.592525     -0.484657
  C      -1.578348      1.727207     -0.456526
  C      -3.731157      0.507431     -0.054661
  C      -2.280035     -1.869236      0.435486
  C      -3.677769     -1.842512      0.508997
  C       2.462482     -0.808461      0.660519
  C      -4.406558     -0.664521      0.265988
  C       2.778857      0.736346     -1.185000
  C       3.824160     -1.066716      0.671299
  C       4.147594      0.472872     -1.178152
  C       4.678784     -0.433498     -0.258715
  H      -1.724932     -2.780725      0.623974
  H       1.833006     -1.311281      1.386634
  H      -5.490876     -0.666381      0.330300
  H       2.368034      1.403039     -1.936528
  H       4.815132      0.933031     -1.900370
  H       1.477511      2.659081     -0.456997
  H      -3.753147      2.348273     -0.475461
  H      -5.258760     -2.870306      0.860848
  H       4.980068     -1.589322      2.149883
  H       6.186067     -1.432801      0.341226
32
Coordinates from ORCA-job Inputs/Quercetin_CPCM E -1103.586664447684
  O      -0.269293     -0.748001      0.036199
  O       0.547509      2.743830     -0.716019
  O      -4.427271      1.639055     -0.289627
  O      -2.128057      2.814836     -0.689211
  O      -4.307661     -2.990241      0.874806
  O       4.439234     -2.056488      1.418449
  O       6.025189     -0.629724     -0.143929
  C      -2.306729      0.513106     -0.136617
  C      -1.627845     -0.692676      0.124352
  C       0.476434      0.364089     -0.263736
  C       1.922059      0.081667     -0.294704
  C      -0.115081      1.577155     -0.482962
  C      -1.569104      1.713828     -0.451236
  C      -3.732479      0.510678     -0.050425
  C      -2.289239     -1.868127      0.462539
  C      -3.685994     -1.833044      0.540465
  C       2.465205     -0.866611      0.600209
  C      -4.411050     -0.656217      0.282225
  C       2.791520      0.758085     -1.176326
  C       3.830942     -1.098885      0.612491
  C       4.167144      0.531980     -1.147654
  C       4.688352     -0.378785     -0.232360
  H      -1.740626     -2.781374      0.661666
  H       1.820996     -1.412421      1.281171
  H      -5.495417     -0.642966      0.345543
  H       2.392108      1.420462     -1.939909
  H       4.827366      1.060643     -1.828191
  H       1.504093      2.613667     -0.584371
  H      -3.746414      2.339673     -0.504363
  H      -5.270665     -2.852453      0.907844
  H       4.853992     -1.578724      2.166910
  H       6.122173     -1.461840      0.359830
32
Coordinates from ORCA-job Inputs/Quercetin_CPCM E -1103.588581614846
  O      -0.258177     -0.728160      0.046346
  O       0.543101      2.762411     -0.721773
  O      -4.429413      1.630065     -0.291744
  O      -2.144250      2.822978     -0.687669
  O      -4.284126     -3.002573      0.859779
  O       4.379536     -2.055185      1.463597
  O       6.013274     -0.694733     -0.261761
  C      -2.304141      0.516985     -0.141827
  C      -1.618752     -0.683838      0.122163
  C       0.478925      0.385152     -0.263634
  C       1.923631      0.109301     -0.276970
  C      -0.123865      1.595373     -0.483874
  C      -1.575658      1.723964     -0.459752
  C      -3.729016      0.504542     -0.056688
  C      -2.271558     -1.865149      0.456594
  C      -3.668914     -1.840263      0.530041
  C       2.464394     -0.830151      0.625961
  C      -4.400837     -0.667010      0.273694
  C       2.790005      0.757929     -1.179740
  C       3.825354     -1.089043      0.631115
  C       4.158893      0.498240     -1.173360
  C       4.685102     -0.421647     -0.264404
  H      -1.715586     -2.774088      0.654608
  H       1.827208     -1.355315      1.329505
  H      -5.485280     -0.667414      0.336935
  H       2.387299      1.431525     -1.930394
  H       4.824456      0.987308     -1.877980
  H       1.484226      2.656604     -0.495183
  H      -3.753142      2.339269     -0.494744
  H      -5.247872     -2.869232      0.891038
  H       4.815755     -1.614270      2.217642
  H       6.160819     -1.429396      0.365537
32
Coordinates from ORCA-job Inputs/Quercetin_CPCM E -1103.588869473938
  O      -0.247736     -0.719714      0.044249
  O       0.537910      2.771651     -0.737402
  O      -4.428332      1.620805     -0.298433
  O      -2.148640      2.818544     -0.708811
  O      -4.262046     -3.001125      0.894551
  O       4.392661     -2.094691      1.399159
  O       6.012514     -0.707513     -0.274928
  C      -2.298822      0.515830     -0.147199
  C      -1.607894     -0.679840      0.124757
  C       0.485083      0.394452     -0.273073
  C       1.929820      0.120367     -0.286413
  C      -0.122741      1.601638     -0.497165
  C      -1.575052      1.723246     -0.474736
  C      -3.723242      0.499615     -0.056717
  C      -2.255047     -1.860578      0.472486
  C      -3.652066     -1.839880      0.551223
  C       2.466008     -0.839257      0.598627
  C      -4.389261     -0.671629      0.286839
  C       2.802240      0.777651     -1.178088
  C       3.824645     -1.103346      0.598310
  C       4.170353      0.515106     -1.175075
  C       4.690816     -0.422825     -0.279458
  H      -1.695046     -2.765649      0.676783
  H       1.824930     -1.378560      1.287740
  H      -5.473438     -0.675576      0.354630
  H       2.404411      1.465472     -1.918540
  H       4.837749      1.015747     -1.869640
  H       1.476807      2.675437     -0.498120
  H      -3.754754      2.330645     -0.508677
  H      -5.226116     -2.870639      0.928189
  H       4.600766     -1.714822      2.273707
  H       6.154910     -1.366385      0.434281
32
Coordinates from ORCA-job Inputs/Quercetin_CPCM E -1103.589253032457
  O      -0.232468     -0.699564      0.058329
  O       0.527597      2.790997     -0.750188
  O      -4.431065      1.602315     -0.322724
  O      -2.159061      2.815901     -0.731214
  O      -4.229419     -3.003642      0.928958
  O       4.398387     -2.114138      1.358813
  O       6.009470     -0.740975     -0.304642
  C      -2.293291      0.515917     -0.153170
  C      -1.592246     -0.669962      0.135586
  C       0.492444      0.416424     -0.270114
  C       1.937479      0.146124     -0.281417
  C      -0.124030      1.617616     -0.503394
  C      -1.577261      1.726337     -0.489620
  C      -3.716915      0.490353     -0.064970
  C      -2.230398     -1.851808      0.497279
  C      -3.627539     -1.841620      0.572720
  C       2.466435     -0.835179      0.583668
  C      -4.373568     -0.682578      0.292685
  C       2.815477      0.799579     -1.170706
  C       3.821054     -1.115891      0.571791
  C       4.179478      0.516544     -1.183158
  C       4.694416     -0.443817     -0.304930
  H      -1.664118     -2.750267      0.713151
  H       1.821187     -1.378027      1.266096
  H      -5.457880     -0.694316      0.358177
  H       2.428687      1.510143     -1.895319
  H       4.847174      1.020611     -1.874679
  H       1.458854      2.714527     -0.476999
  H      -3.763358      2.315375     -0.539842
  H      -5.194724     -2.880067      0.955165
  H       4.371944     -1.842925      2.292959
  H       6.148653     -1.319810      0.474768
32
Coordinates from ORCA-job Inputs/Quercetin_CPCM E -1103.589927055743
  O      -0.220055     -0.684263      0.069820
  O       0.521203      2.803025     -0.767673
  O      -4.432805      1.586089     -0.342112
  O      -2.166885      2.810528     -0.755880
  O      -4.203139     -3.004377      0.961908
  O       4.403882     -2.114976      1.337800
  O       6.012945     -0.755461     -0.317407
  C      -2.288642      0.514619     -0.158753
  C      -1.579433     -0.662780      0.144505
  C       0.498601      0.432661     -0.269470
  C       1.944115      0.166750     -0.278282
  C      -0.124410      1.628300     -0.512198
  C      -1.578577      1.726697     -0.504655
  C      -3.711420      0.481890     -0.071433
  C      -2.210600     -1.844665      0.519149
  C      -3.607713     -1.842582      0.592976
  C       2.468420     -0.825854      0.576165
  C      -4.360619     -0.691464      0.299608
  C       2.826166      0.818705     -1.164367
  C       3.820639     -1.116693      0.558729
  C       4.187677      0.523017     -1.183435
  C       4.699629     -0.450743     -0.316425
  H      -1.639685     -2.737709      0.745145
  H       1.819649     -1.369478      1.254678
  H      -5.444951     -0.708453      0.364252
  H       2.450310      1.546179     -1.877761
  H       4.855639      1.030925     -1.871801
  H       1.445650      2.742475     -0.468810
  H      -3.769761      2.301407     -0.565012
  H      -5.169357     -2.886501      0.981843
  H       4.153358     -1.991466      2.268347
  H       6.151560     -1.291626      0.493610
32
Coordinates from ORCA-job Inputs/Quercetin_CPCM E -1103.590931548640
  O      -0.204075     -0.655664      0.099595
  O       0.514262      2.823948     -0.777909
  O      -4.439792      1.557894     -0.374388
  O      -2.182174      2.811178     -0.763541
  O      -4.166886     -3.018655      0.970563
  O       4.371651     -2.057731      1.391408
  O       6.020106     -0.797894     -0.375983
  C      -2.285061      0.515257     -0.159508
  C      -1.562742     -0.650257      0.160157
  C       0.504869      0.463495     -0.252358
  C       1.950842      0.205927     -0.257315
  C      -0.128512      1.651201     -0.503955
  C      -1.584016      1.735019     -0.504418
  C      -3.705795      0.467026     -0.084130
  C      -2.183572     -1.837047      0.538008
  C      -3.581157     -1.851643      0.599358
  C       2.470715     -0.786026      0.596482
  C      -4.344232     -0.711406      0.292860
  C       2.832320      0.841579     -1.151721
  C       3.819026     -1.105407      0.570678
  C       4.185073      0.503050     -1.188354
  C       4.699774     -0.486150     -0.339378
  H      -1.606608     -2.723916      0.773030
  H       1.821373     -1.305094      1.293751
  H      -5.429048     -0.737756      0.346818
  H       2.482388      1.596233     -1.848648
  H       4.850460      0.995435     -1.890531
  H       1.420175      2.793155     -0.422470
  H      -3.786529      2.279199     -0.602807
  H      -5.134774     -2.912341      0.969840
  H       3.957934     -2.054468      2.265740
  H       6.175398     -1.413965      0.372182
32
Coordinates from ORCA-job Inputs/Quercetin_CPCM E -1103.592077443616
  O      -0.208797     -0.668588      0.096970
  O       0.523530      2.807922     -0.782673
  O      -4.434751      1.568923     -0.360224
  O      -2.171231      2.808031     -0.764750
  O      -4.183094     -3.012458      0.968715
  O       4.426163     -2.027957      1.391980
  O       6.030602     -0.753304     -0.340835
  C      -2.284528      0.514184     -0.155507
  C      -1.567875     -0.655972      0.160697
  C       0.504809      0.448717     -0.252897
  C       1.951746      0.190520     -0.264181
  C      -0.123392      1.638129     -0.506802
  C      -1.578659      1.729406     -0.503871
  C      -3.706080      0.472707     -0.077417
  C      -2.194621     -1.840061      0.536528
  C      -3.592335     -1.847692      0.599404
  C       2.482982     -0.785090      0.604112
  C      -4.350191     -0.703177      0.296381
  C       2.824795      0.825438     -1.167928
  C       3.836211     -1.082791      0.582581
  C       4.183630      0.511878     -1.195749
  C       4.708376     -0.449806     -0.324687
  H      -1.621865     -2.730214      0.769417
  H       1.837696     -1.305954      1.303889
  H      -5.435029     -0.723074      0.352088
  H       2.461224      1.559116     -1.880493
  H       4.842301      1.008432     -1.901605
  H       1.438258      2.764040     -0.451779
  H      -3.777276      2.288548     -0.581752
  H      -5.150455     -2.902048      0.970962
  H       3.901607     -2.166619      2.196601
  H       6.177643     -1.347011      0.425884
32
Coordinates from ORCA-job Inputs/Quercetin_CPCM E -1103.592922259150
  O      -0.220565     -0.696105      0.096728
  O       0.545846      2.775949     -0.773201
  O      -4.423423      1.593267     -0.332662
  O      -2.147373      2.812145     -0.731705
  O      -4.222253     -3.007634      0.929867
  O       4.500932     -1.951739      1.427610
  O       6.041638     -0.678915     -0.311402
  C      -2.283444      0.515104     -0.138572
  C      -1.581038     -0.668209      0.161594
  C       0.502840      0.416726     -0.247200
  C       1.950101      0.155513     -0.269125
  C      -0.113914      1.613237     -0.496471
  C      -1.566972      1.725499     -0.477893
  C      -3.706681      0.485641     -0.063806
  C      -2.221505     -1.849891      0.519067
  C      -3.619789     -1.843801      0.579126
  C       2.503603     -0.780849      0.631831
  C      -4.365141     -0.687612      0.290291
  C       2.801416      0.785872     -1.195784
  C       3.863849     -1.046266      0.611676
  C       4.169725      0.512608     -1.213080
  C       4.713741     -0.398453     -0.308330
  H      -1.658163     -2.748821      0.740939
  H       1.870037     -1.294266      1.348637
  H      -5.450188     -0.696304      0.342840
  H       2.407215      1.472480     -1.938259
  H       4.816038      1.003105     -1.934772
  H       1.474211      2.702945     -0.487639
  H      -3.758076      2.308450     -0.545210
  H      -5.188416     -2.888227      0.935725
  H       3.914492     -2.216674      2.158829
  H       6.202650     -1.290596      0.433412
32
Coordinates from ORCA-job Inputs/Quercetin_CPCM E -1103.593118061666
  O      -0.217791     -0.690573      0.101594
  O       0.544684      2.777069     -0.788040
  O      -4.423872      1.590727     -0.335253
  O      -2.150834      2.814375     -0.730948
  O      -4.215677     -3.007681      0.936496
  O       4.498917     -1.904243      1.466899
  O       6.046410     -0.663845     -0.302428
  C      -2.282322      0.517011     -0.137439
  C      -1.578459     -0.664981      0.164345
  C       0.503354      0.420761     -0.250314
  C       1.950045      0.161709     -0.266580
  C      -0.115688      1.616266     -0.502231
  C      -1.568202      1.728325     -0.479433
  C      -3.705132      0.485034     -0.062577
  C      -2.216916     -1.847042      0.523763
  C      -3.615259     -1.843221      0.584098
  C       2.501423     -0.763767      0.646143
  C      -4.362207     -0.688518      0.293821
  C       2.799471      0.781605     -1.199643
  C       3.861549     -1.032305      0.631864
  C       4.168394      0.503792     -1.211285
  C       4.713366     -0.397384     -0.299249
  H      -1.652253     -2.744856      0.746755
  H       1.865555     -1.264621      1.370472
  H      -5.447236     -0.698892      0.346126
  H       2.406500      1.461604     -1.948237
  H       4.817251      0.984839     -1.936845
  H       1.472262      2.705788     -0.498819
  H      -3.760852      2.306179     -0.553797
  H      -5.182062     -2.889759      0.941294
  H       3.864132     -2.363947      2.040970
  H       6.232842     -1.255274      0.451537
32
Coordinates from ORCA-job Inputs/Quercetin_CPCM E -1103.592588398113
  O      -0.233987     -0.739347      0.044652
  O       0.574222      2.740891     -0.754734
  O      -4.397531      1.640065     -0.217896
  O      -2.116857      2.833108     -0.619919
  O      -4.262602     -3.016976      0.830721
  O       4.515613     -1.793460      1.569618
  O       6.056789     -0.559592     -0.283210
  C      -2.275436      0.518196     -0.110371
  C      -1.595790     -0.692440      0.124446
  C       0.501475      0.369296     -0.279776
  C       1.945561      0.101080     -0.300634
  C      -0.102874      1.583340     -0.487666
  C      -1.549884      1.726249     -0.425701
  C      -3.700433      0.506123     -0.012898
  C      -2.250063     -1.877074      0.439066
  C      -3.647591     -1.849482      0.521910
  C       2.511706     -0.763091      0.661881
  C      -4.376537     -0.668613      0.295786
  C       2.772770      0.709790     -1.257842
  C       3.879839     -0.998025      0.675527
  C       4.150967      0.471947     -1.241348
  C       4.709035     -0.358740     -0.282044
  H      -1.696172     -2.791799      0.614513
  H       1.883638     -1.239277      1.410264
  H      -5.460433     -0.665222      0.365999
  H       2.340613      1.315261     -2.047232
  H       4.805897      0.924750     -1.979525
  H       1.522149      2.614060     -0.564845
  H      -3.722075      2.352118     -0.414415
  H      -5.226071     -2.883734      0.869837
  H       3.889586     -2.146326      2.225014
  H       6.305865     -1.228900      0.373877
32
Coordinates from ORCA-job Inputs/Quercetin_CPCM E -1103.593356231715
  O      -0.222463     -0.706108      0.074888
  O       0.549574      2.770218     -0.774922
  O      -4.416127      1.607165     -0.290835
  O      -2.142419      2.820039     -0.696924
  O      -4.226893     -3.013039      0.903318
  O       4.498494     -1.883217      1.496581
  O       6.049514     -0.632030     -0.289155
  C      -2.280243      0.517169     -0.129228
  C      -1.583216     -0.674594      0.147707
  C       0.503022      0.406090     -0.264358
  C       1.949688      0.144718     -0.281932
  C      -0.112117      1.607593     -0.499647
  C      -1.563572      1.727478     -0.463043
  C      -3.704273      0.491407     -0.043574
  C      -2.225042     -1.858623      0.493065
  C      -3.622931     -1.847129      0.564502
  C       2.503663     -0.763991      0.645555
  C      -4.365538     -0.683481      0.297786
  C       2.795612      0.764939     -1.218386
  C       3.865993     -1.025487      0.641714
  C       4.167298      0.500686     -1.216922
  C       4.712321     -0.383409     -0.290482
  H      -1.662304     -2.761708      0.698634
  H       1.868134     -1.260520      1.373137
  H      -5.450077     -0.690704      0.359123
  H       2.389644      1.419994     -1.982493
  H       4.822062      0.972492     -1.943357
  H       1.489144      2.676074     -0.534950
  H      -3.748092      2.321344     -0.502060
  H      -5.192416     -2.890374      0.923987
  H       3.862949     -2.263829      2.127250
  H       6.242004     -1.274985      0.418081
32
Coordinates from ORCA-job Inputs/Quercetin_CPCM E -1103.593368584524
  O      -0.221246     -0.702771      0.079030
  O       0.546748      2.773025     -0.777559
  O      -4.417656      1.603869     -0.298795
  O      -2.144533      2.818736     -0.703492
  O      -4.223675     -3.012425      0.910082
  O       4.496249     -1.885592      1.495124
  O       6.048331     -0.637583     -0.291466
  C      -2.280492      0.517037     -0.130681
  C      -1.581907     -0.672647      0.150910
  C       0.503301      0.409661     -0.261775
  C       1.950060      0.148791     -0.279228
  C      -0.112759      1.609792     -0.501027
  C      -1.564557      1.727405     -0.466641
  C      -3.704423      0.490064     -0.046643
  C      -2.222601     -1.856600      0.499190
  C      -3.620502     -1.846730      0.568787
  C       2.502780     -0.763852      0.644949
  C      -4.364325     -0.684771      0.297750
  C       2.797631      0.770407     -1.213538
  C       3.864783     -1.026555      0.640585
  C       4.168583      0.503697     -1.213699
  C       4.712438     -0.385111     -0.290174
  H      -1.658842     -2.758321      0.707955
  H       1.866596     -1.261558      1.371124
  H      -5.448945     -0.693665      0.357734
  H       2.393060      1.428928     -1.975471
  H       4.824267      0.975804     -1.939060
  H       1.486158      2.681693     -0.535959
  H      -3.750323      2.318136     -0.511904
  H      -5.189342     -2.890527      0.929019
  H       3.856948     -2.286645      2.108685
  H       6.239589     -1.277514      0.419245
32
Coordinates from ORCA-job Inputs/Quercetin_CPCM E -1103.593376206298
  O      -0.220857     -0.701681      0.079861
  O       0.545184      2.774915     -0.776177
  O      -4.418136      1.602874     -0.301015
  O      -2.145366      2.818206     -0.705207
  O      -4.222561     -3.012484      0.911479
  O       4.495251     -1.885591      1.496283
  O       6.047711     -0.639951     -0.293222
  C      -2.280572      0.516913     -0.131138
  C      -1.581469     -0.672107      0.151640
  C       0.503432      0.411064     -0.260571
  C       1.950259      0.150402     -0.278027
  C      -0.112872      1.610772     -0.500968
  C      -1.564917      1.727301     -0.467381
  C      -3.704558      0.489555     -0.047686
  C      -2.221693     -1.856161      0.500753
  C      -3.619567     -1.846837      0.569675
  C       2.502671     -0.762964      0.645482
  C      -4.363862     -0.685378      0.297365
  C       2.798496      0.772389     -1.211742
  C       3.864627     -1.026179      0.640900
  C       4.169046      0.504912     -1.212575
  C       4.712386     -0.385637     -0.289884
  H      -1.657344     -2.757295      0.710456
  H       1.866327     -1.260830      1.371389
  H      -5.448501     -0.695294      0.356991
  H       2.393537      1.430940     -1.973539
  H       4.825677      0.976047     -1.937675
  H       1.485608      2.683313     -0.538754
  H      -3.750882      2.317173     -0.514441
  H      -5.188247     -2.890733      0.930362
  H       3.853896     -2.292043      2.104164
  H       6.238687     -1.281434      0.416257
32
Coordinates from ORCA-job Inputs/Quercetin_CPCM E -1103.593377310608
  O      -0.221065     -0.702001      0.079448
  O       0.544869      2.775761     -0.772531
  O      -4.418022      1.603304     -0.300240
  O      -2.145053      2.818541     -0.703154
  O      -4.223122     -3.012911      0.909189
  O       4.496074     -1.882487      1.499340
  O       6.047616     -0.640211     -0.294937
  C      -2.280601      0.516921     -0.130750
  C      -1.581636     -0.672333      0.151308
  C       0.503418      0.411070     -0.259533
  C       1.950232      0.150255     -0.277439
  C      -0.112584      1.610977     -0.499384
  C      -1.564772      1.727372     -0.466051
  C      -3.704651      0.489718     -0.047528
  C      -2.221988     -1.856589      0.499676
  C      -3.619832     -1.847149      0.568326
  C       2.503229     -0.761712      0.647014
  C      -4.364005     -0.685400      0.296613
  C       2.798085      0.771172     -1.212329
  C       3.865331     -1.024633      0.642128
  C       4.168506      0.503928     -1.213726
  C       4.712365     -0.385721     -0.290189
  H      -1.657520     -2.757758      0.708906
  H       1.867314     -1.258532      1.374010
  H      -5.448652     -0.695654      0.356128
  H       2.391916      1.428078     -1.974988
  H       4.825338      0.973505     -1.939644
  H       1.486643      2.682342     -0.541349
  H      -3.750579      2.317588     -0.513183
  H      -5.188763     -2.890882      0.928482
  H       3.854052     -2.289523      2.106163
  H       6.239249     -1.282861      0.413282
32
Coordinates from ORCA-job Inputs/Quercetin_CPCM E -1103.593366132200
  O      -0.221228     -0.702267      0.079409
  O       0.545043      2.775891     -0.770704
  O      -4.417933      1.603596     -0.299835
  O      -2.144744      2.818806     -0.702030
  O      -4.223584     -3.013081      0.907894
  O       4.496801     -1.881240      1.500199
  O       6.047686     -0.640069     -0.295675
  C      -2.280613      0.516981     -0.130455
  C      -1.581786     -0.672471      0.151191
  C       0.503380      0.410892     -0.259041
  C       1.950164      0.149940     -0.277194
  C      -0.112428      1.610980     -0.498374
  C      -1.564643      1.727502     -0.465150
  C      -3.704689      0.489851     -0.047467
  C      -2.222300     -1.856794      0.499045
  C      -3.620144     -1.847254      0.567524
  C       2.503567     -0.761280      0.647730
  C      -4.364185     -0.685341      0.296119
  C       2.797628      0.770212     -1.212862
  C       3.865720     -1.024082      0.642502
  C       4.168046      0.503101     -1.214601
  C       4.712360     -0.385794     -0.290587
  H      -1.657896     -2.758068      0.707990
  H       1.867954     -1.257582      1.375355
  H      -5.448841     -0.695558      0.355494
  H       2.391026      1.426387     -1.975944
  H       4.824627      0.972157     -1.941085
  H       1.487264      2.681634     -0.541726
  H      -3.750427      2.317907     -0.512421
  H      -5.189209     -2.890941      0.927210
  H       3.855080     -2.287151      2.108099
  H       6.239696     -1.282689      0.412447
