73
Coordinates from ORCA-job Inputs/Rutin_CPCM E -2249.206221731806
  O       0.962876     -0.071301      1.744678
  O       0.762735      2.597461      0.982705
  O      -1.374728      3.587375      0.623577
  O       3.133371      2.172258      3.726002
  O       4.938539      0.136246      2.927967
  O       1.204203     -2.330370      1.057706
  O       3.705978     -2.471513      2.465416
  O      -0.128562      5.489883     -1.143615
  O       0.234088      3.753624     -3.185830
  O      -1.818303      1.725690     -2.534840
  O      -1.536104     -1.820176     -1.337863
  O      -1.106388     -2.373456      2.676970
  O      -3.723433     -1.767744      2.983826
  O      -6.133385     -0.898013     -1.050500
  O       3.295599      0.301836     -3.049051
  O       3.883653     -1.990564     -4.504616
  C       1.267010      0.944662      2.700108
  C       2.775967      1.204962      2.726683
  C       3.526681     -0.101962      3.016593
  C       3.098285     -1.229430      2.065429
  C       0.462534      4.209019     -0.821009
  C       0.048174      3.762023      0.591408
  C       0.002242      3.195646     -1.877143
  C      -1.490324      2.859189     -1.724363
  C       1.554660     -1.339854      2.040439
  C       0.467493      2.203684      2.328242
  C      -1.830550      2.552339     -0.258061
  C      -3.339318      2.435807     -0.057362
  C      -0.078524     -2.167082      0.557362
  C      -0.302256     -2.019431     -0.758455
  C      -1.249601     -2.139725      1.482346
  C      -2.562025     -1.815681      0.872636
  C       0.802742     -2.012981     -1.725752
  C      -2.622427     -1.673404     -0.515111
  C      -3.737473     -1.652532      1.622128
  C      -3.828719     -1.368264     -1.148779
  C       1.512032     -0.829511     -1.970845
  C       1.173102     -3.194575     -2.386829
  C      -4.950054     -1.350389      0.991802
  C      -4.981260     -1.207905     -0.391375
  C       2.568400     -0.839786     -2.870623
  C       2.228107     -3.190704     -3.303462
  C       2.904354     -2.005249     -3.553618
  H       0.924818      0.622450      3.692886
  H       3.118838      1.602201      1.763706
  H       3.352738     -0.410836      4.055077
  H       3.473560     -1.021088      1.056370
  H       1.548523      4.335468     -0.889640
  H       0.279000      4.574126      1.291298
  H       0.597564      2.279938     -1.814394
  H      -2.079429      3.710907     -2.088171
  H       1.205792     -1.696784      3.017014
  H      -0.600287      1.966698      2.399903
  H       0.694091      3.025319      3.017229
  H      -1.387263      1.592950      0.037423
  H      -3.565185      2.184977      0.984896
  H      -3.777748      1.669595     -0.701202
  H      -3.835052      3.390749     -0.264775
  H       2.902811      1.817384      4.603132
  H       5.096247      1.042306      3.255564
  H       3.413252     -2.691777      3.364431
  H      -0.983897      5.534180     -0.673560
  H       0.130071      4.720554     -3.085822
  H      -2.685132      1.891802     -2.942031
  H      -3.862855     -1.249025     -2.228743
  H       1.255256      0.086438     -1.448073
  H       0.640843     -4.122296     -2.190863
  H      -5.854307     -1.215418      1.575877
  H       2.506488     -4.100909     -3.825475
  H      -4.627247     -1.789444      3.335105
  H      -6.869873     -0.863688     -0.417887
  H       4.217778      0.015292     -3.179824
  H       3.786911     -1.138270     -4.968774
73
Coordinates from ORCA-job Inputs/Rutin_CPCM E -2249.219986634323
  O       0.960749     -0.036862      1.766119
  O       0.770469      2.632864      1.001080
  O      -1.358826      3.581715      0.616549
  O       3.207635      2.213221      3.647797
  O       4.951705      0.095915      2.854188
  O       1.140255     -2.260585      1.109270
  O       3.653713     -2.475261      2.436106
  O      -0.076272      5.514618     -1.077856
  O       0.355868      3.800608     -3.146417
  O      -1.668549      1.735445     -2.570531
  O      -1.567478     -1.822175     -1.288397
  O      -1.139008     -2.342798      2.746202
  O      -3.798067     -1.815178      2.997191
  O      -6.184357     -1.055774     -1.089690
  O       3.245958      0.339791     -3.103983
  O       3.843756     -1.985883     -4.527411
  C       1.287301      0.988183      2.706221
  C       2.804081      1.220405      2.700691
  C       3.541293     -0.094511      2.989835
  C       3.075475     -1.222308      2.065354
  C       0.502444      4.235974     -0.770941
  C       0.051088      3.784526      0.621013
  C       0.085462      3.233924     -1.858032
  C      -1.401287      2.868729     -1.737220
  C       1.537276     -1.292038      2.082976
  C       0.477280      2.230468      2.344039
  C      -1.781945      2.538051     -0.281929
  C      -3.289855      2.384685     -0.099056
  C      -0.138800     -2.107479      0.614823
  C      -0.333520     -1.978658     -0.714813
  C      -1.295744     -2.116097      1.543164
  C      -2.605967     -1.837450      0.914205
  C       0.772392     -1.984373     -1.702117
  C      -2.669512     -1.701482     -0.486025
  C      -3.811162     -1.707186      1.642879
  C      -3.866961     -1.444776     -1.151392
  C       1.485944     -0.805051     -1.961616
  C       1.127828     -3.169035     -2.363806
  C      -5.018189     -1.449359      0.985707
  C      -5.037005     -1.318877     -0.407924
  C       2.530477     -0.813554     -2.882765
  C       2.162926     -3.171073     -3.302998
  C       2.848632     -1.989232     -3.577041
  H       0.964600      0.679754      3.713159
  H       3.121893      1.592485      1.722780
  H       3.348340     -0.394731      4.033445
  H       3.418978     -1.026990      1.044812
  H       1.587126      4.374436     -0.796395
  H       0.234178      4.593212      1.340409
  H       0.690293      2.325963     -1.782340
  H      -1.994235      3.721396     -2.091140
  H       1.188431     -1.624540      3.068966
  H      -0.588817      1.992182      2.432566
  H       0.713887      3.044037      3.040455
  H      -1.302650      1.594179      0.008422
  H      -3.525568      2.120469      0.938346
  H      -3.687151      1.604175     -0.753661
  H      -3.806201      3.326714     -0.324052
  H       2.994005      1.888057      4.540528
  H       5.129225      0.996285      3.179780
  H       3.378689     -2.680688      3.346296
  H      -0.953823      5.540126     -0.654113
  H       0.209055      4.758431     -3.033972
  H      -2.526579      1.877110     -2.998401
  H      -3.884616     -1.338752     -2.231179
  H       1.246536      0.110426     -1.432032
  H       0.592990     -4.091284     -2.155098
  H      -5.936519     -1.341407      1.557343
  H       2.429527     -4.083257     -3.827685
  H      -4.711443     -1.837461      3.329635
  H      -6.933950     -1.034686     -0.469480
  H       4.170003      0.082299     -3.281500
  H       3.791993     -1.136108     -5.003736
73
Coordinates from ORCA-job Inputs/Rutin_CPCM E -2249.224970744211
  O       0.950407      0.003662      1.792184
  O       0.790355      2.693690      1.047300
  O      -1.337060      3.564560      0.546135
  O       3.254001      2.247268      3.608076
  O       4.942554      0.067572      2.831997
  O       1.073585     -2.196610      1.147817
  O       3.597176     -2.475198      2.425283
  O      -0.004604      5.564961     -1.024662
  O       0.626762      3.890430     -3.082991
  O      -1.336502      1.738208     -2.667667
  O      -1.638362     -1.847850     -1.214880
  O      -1.151714     -2.317880      2.821555
  O      -3.843034     -1.898775      3.065310
  O      -6.275433     -1.285988     -1.028048
  O       3.088934      0.430661     -3.141550
  O       3.680809     -1.889629     -4.597838
  C       1.292489      1.032725      2.726788
  C       2.814606      1.238233      2.700789
  C       3.535372     -0.085541      2.990665
  C       3.041369     -1.213231      2.079557
  C       0.586643      4.301913     -0.700863
  C       0.054185      3.821751      0.648775
  C       0.283811      3.302992     -1.829452
  C      -1.190196      2.872357     -1.807285
  C       1.506008     -1.249813      2.119180
  C       0.477927      2.265648      2.377205
  C      -1.661024      2.505765     -0.385947
  C      -3.165147      2.282742     -0.296111
  C      -0.209987     -2.062116      0.673157
  C      -0.395611     -1.949690     -0.664067
  C      -1.341074     -2.110408      1.614915
  C      -2.656572     -1.891439      0.989993
  C       0.691185     -1.942003     -1.679917
  C      -2.745489     -1.768251     -0.416737
  C      -3.878412     -1.803285      1.715672
  C      -3.945553     -1.570619     -1.093143
  C       1.391091     -0.755824     -1.943217
  C       1.027900     -3.113942     -2.370319
  C      -5.089942     -1.602721      1.053533
  C      -5.120116     -1.488380     -0.345744
  C       2.403456     -0.738760     -2.900223
  C       2.028876     -3.094016     -3.344010
  C       2.704078     -1.906456     -3.626727
  H       0.983778      0.729139      3.741733
  H       3.114044      1.591460      1.709637
  H       3.315284     -0.377531      4.034974
  H       3.360720     -1.019469      1.050716
  H       1.664965      4.476337     -0.638449
  H       0.141912      4.625929      1.391900
  H       0.915155      2.416436     -1.712659
  H      -1.796041      3.710081     -2.178200
  H       1.153497     -1.565207      3.111753
  H      -0.586832      2.021284      2.458782
  H       0.706497      3.065104      3.094540
  H      -1.140124      1.590496     -0.077128
  H      -3.451467      1.997493      0.721911
  H      -3.469767      1.482409     -0.978046
  H      -3.708537      3.198001     -0.562795
  H       3.048337      1.949839      4.512897
  H       5.141480      0.957913      3.174673
  H       3.339303     -2.674454      3.342846
  H      -0.923751      5.544322     -0.700837
  H       0.398469      4.834062     -2.978848
  H      -2.173966      1.831587     -3.146777
  H      -3.963921     -1.479840     -2.173084
  H       1.170425      0.149252     -1.387148
  H       0.500750     -4.039793     -2.159747
  H      -6.011706     -1.528804      1.626754
  H       2.283126     -3.993484     -3.896649
  H      -4.756857     -1.914893      3.401298
  H      -7.026282     -1.281212     -0.408196
  H       4.009277      0.209392     -3.374114
  H       3.640184     -1.038659     -5.070622
73
Coordinates from ORCA-job Inputs/Rutin_CPCM E -2249.226532317101
  O       0.949198      0.049921      1.807613
  O       0.824220      2.752914      1.084290
  O      -1.308723      3.552541      0.491193
  O       3.280465      2.274592      3.606679
  O       4.928364      0.053661      2.882759
  O       1.042832     -2.144628      1.157964
  O       3.562527     -2.464890      2.442610
  O       0.040033      5.592506     -1.026510
  O       0.807540      3.921787     -3.044755
  O      -1.107124      1.717171     -2.709388
  O      -1.687710     -1.858264     -1.178094
  O      -1.158394     -2.289669      2.854711
  O      -3.867626     -1.966767      3.107093
  O      -6.339374     -1.465192     -0.979136
  O       3.022587      0.477860     -3.131005
  O       3.526768     -1.814093     -4.683002
  C       1.297263      1.074780      2.746894
  C       2.822068      1.257739      2.719092
  C       3.519919     -0.074593      3.023833
  C       3.018093     -1.197177      2.107369
  C       0.647202      4.346285     -0.670579
  C       0.067471      3.855121      0.655842
  C       0.423357      3.333527     -1.806748
  C      -1.037123      2.854851     -1.845773
  C       1.481704     -1.213507      2.138587
  C       0.490343      2.311944      2.402908
  C      -1.558719      2.474434     -0.445542
  C      -3.054772      2.200065     -0.416662
  C      -0.247603     -2.020311      0.697835
  C      -0.436890     -1.916270     -0.641275
  C      -1.366945     -2.096788      1.647569
  C      -2.689221     -1.927844      1.029805
  C       0.631721     -1.900851     -1.674911
  C      -2.795100     -1.816964     -0.377606
  C      -3.916398     -1.877703      1.757783
  C      -4.001388     -1.667071     -1.054646
  C       1.355698     -0.723609     -1.912572
  C       0.908729     -3.050279     -2.425979
  C      -5.133480     -1.722341      1.098243
  C      -5.175257     -1.620319     -0.302157
  C       2.333434     -0.690580     -2.904108
  C       1.875288     -3.013641     -3.432630
  C       2.575770     -1.835394     -3.689792
  H       0.990168      0.768917      3.762041
  H       3.120923      1.593098      1.721349
  H       3.267186     -0.358484      4.064090
  H       3.337099     -0.996691      1.079117
  H       1.716353      4.548592     -0.556388
  H       0.088818      4.661635      1.401247
  H       1.073035      2.465087     -1.650412
  H      -1.655088      3.674631     -2.238584
  H       1.114938     -1.523365      3.127822
  H      -0.576350      2.069362      2.466168
  H       0.711357      3.102028      3.133621
  H      -1.011939      1.584563     -0.109827
  H      -3.374392      1.919699      0.592409
  H      -3.294910      1.374654     -1.095070
  H      -3.616925      3.088521     -0.729365
  H       3.060566      2.003578      4.516689
  H       5.144321      0.922871      3.267954
  H       3.313534     -2.664095      3.362749
  H      -0.905815      5.525193     -0.799849
  H       0.498220      4.846076     -2.978956
  H      -1.937736      1.765950     -3.207233
  H      -4.024449     -1.588699     -2.135195
  H       1.180593      0.163850     -1.312932
  H       0.358786     -3.967930     -2.239265
  H      -6.055150     -1.676562      1.674720
  H       2.084646     -3.891897     -4.036163
  H      -4.778556     -1.962202      3.452579
  H      -7.087758     -1.466285     -0.356196
  H       3.929930      0.264620     -3.415217
  H       3.513550     -0.945768     -5.124104
73
Coordinates from ORCA-job Inputs/Rutin_CPCM E -2249.227349188737
  O       0.993573      0.107417      1.818173
  O       0.841495      2.786375      1.095072
  O      -1.315052      3.628668      0.622504
  O       3.377907      2.305351      3.575305
  O       4.963134      0.037837      2.901717
  O       1.061499     -2.083283      1.153554
  O       3.570719     -2.451185      2.454954
  O       0.011135      5.551610     -1.086343
  O       0.538396      3.741824     -3.073705
  O      -1.471068      1.687429     -2.513890
  O      -1.597714     -1.852564     -1.255926
  O      -1.185561     -2.148652      2.799076
  O      -3.909559     -1.860443      2.954727
  O      -6.254911     -1.495948     -1.219573
  O       3.312498      0.279773     -3.065675
  O       3.609658     -2.002345     -4.714215
  C       1.358607      1.126882      2.761600
  C       2.885636      1.281951      2.714446
  C       3.555670     -0.059594      3.036277
  C       3.036903     -1.179855      2.124367
  C       0.577640      4.288999     -0.720032
  C       0.080599      3.887861      0.670410
  C       0.214466      3.237067     -1.786015
  C      -1.268434      2.836153     -1.690306
  C       1.499023     -1.171904      2.149877
  C       0.566096      2.377540      2.435606
  C      -1.682659      2.520024     -0.239646
  C      -3.176750      2.301808     -0.071861
  C      -0.217979     -1.952389      0.661543
  C      -0.359793     -1.887456     -0.687248
  C      -1.362601     -2.001572      1.579543
  C      -2.663140     -1.862823      0.918721
  C       0.724127     -1.933042     -1.700601
  C      -2.731406     -1.798071     -0.493805
  C      -3.919084     -1.801438      1.602693
  C      -3.913713     -1.676696     -1.217504
  C       1.563898     -0.824605     -1.883606
  C       0.877566     -3.063187     -2.513454
  C      -5.111674     -1.674100      0.899269
  C      -5.111309     -1.615424     -0.504291
  C       2.535111     -0.837133     -2.881800
  C       1.842996     -3.072538     -3.520718
  C       2.660532     -1.961879     -3.724385
  H       1.064038      0.817918      3.779741
  H       3.173802      1.593835      1.705944
  H       3.277662     -0.325491      4.075841
  H       3.352399     -0.979662      1.094195
  H       1.661074      4.437152     -0.694624
  H       0.173722      4.726651      1.373150
  H       0.823562      2.338380     -1.628830
  H      -1.877902      3.680574     -2.045871
  H       1.113500     -1.478119      3.132332
  H      -0.502960      2.165818      2.551754
  H       0.847559      3.173092      3.139721
  H      -1.129455      1.630183      0.083233
  H      -3.417746      2.091511      0.975015
  H      -3.492145      1.442246     -0.672982
  H      -3.736059      3.186403     -0.398333
  H       3.142193      2.071560      4.491907
  H       5.204496      0.876292      3.337544
  H       3.341833     -2.642276      3.381973
  H      -0.934733      5.516926     -0.851214
  H       0.226282      4.667670     -3.055378
  H      -2.357548      1.744288     -2.903766
  H      -3.899204     -1.637870     -2.300145
  H       1.479057      0.049293     -1.245230
  H       0.232886     -3.925903     -2.373798
  H      -6.052382     -1.620925      1.443411
  H       1.962090     -3.931613     -4.174627
  H      -4.826271     -1.785444      3.277173
  H      -7.022874     -1.463557     -0.621778
  H       4.199021      0.020979     -3.375027
  H       3.703326     -1.122453     -5.120567
73
Coordinates from ORCA-job Inputs/Rutin_CPCM E -2249.228859731324
  O       0.982201      0.156428      1.816399
  O       0.880688      2.831901      1.114015
  O      -1.266342      3.622319      0.521041
  O       3.330572      2.315335      3.670184
  O       4.924670      0.056208      2.983331
  O       1.047966     -2.030571      1.134464
  O       3.539167     -2.418323      2.466149
  O       0.118673      5.570862     -1.127067
  O       0.789941      3.742443     -3.070292
  O      -1.213969      1.666343     -2.611867
  O      -1.677123     -1.859253     -1.213638
  O      -1.166068     -2.163802      2.827928
  O      -3.891137     -1.996681      3.048626
  O      -6.345284     -1.715640     -1.067106
  O       3.318726      0.294788     -2.946853
  O       3.418946     -1.842158     -4.815719
  C       1.327662      1.161627      2.780319
  C       2.856707      1.312068      2.774415
  C       3.515148     -0.038534      3.089175
  C       3.010898     -1.141247      2.147517
  C       0.683083      4.316976     -0.722973
  C       0.119566      3.914470      0.642827
  C       0.397383      3.247410     -1.797101
  C      -1.080772      2.819217     -1.781587
  C       1.472370     -1.131101      2.145482
  C       0.550535      2.418943      2.440745
  C      -1.559564      2.500177     -0.351354
  C      -3.055015      2.246883     -0.260561
  C      -0.246794     -1.923768      0.672179
  C      -0.424110     -1.856458     -0.672293
  C      -1.371990     -2.009516      1.614379
  C      -2.692392     -1.923900      0.983909
  C       0.629940     -1.871245     -1.713039
  C      -2.793644     -1.856028     -0.424651
  C      -3.932576     -1.924964      1.696662
  C      -3.997729     -1.784114     -1.119997
  C       1.537505     -0.806448     -1.819166
  C       0.683031     -2.924296     -2.635757
  C      -5.145718     -1.850654      1.021761
  C      -5.180001     -1.782497     -0.380318
  C       2.477562     -0.784568     -2.847070
  C       1.621452     -2.900230     -3.667718
  C       2.506703     -1.830386     -3.792971
  H       1.004814      0.841785      3.785901
  H       3.170637      1.643653      1.780071
  H       3.220234     -0.316859      4.120375
  H       3.344511     -0.922399      1.126836
  H       1.760880      4.482868     -0.643456
  H       0.157644      4.758050      1.344705
  H       1.008781      2.359398     -1.596397
  H      -1.689427      3.647915     -2.174688
  H       1.068047     -1.442368      3.117281
  H      -0.522838      2.210406      2.513334
  H       0.808157      3.208167      3.160488
  H      -1.003756      1.624943      0.006121
  H      -3.345833      2.045420      0.775494
  H      -3.318978      1.371457     -0.863649
  H      -3.617856      3.112951     -0.627762
  H       3.054426      2.073996      4.573348
  H       5.166301      0.871414      3.460106
  H       3.306364     -2.621165      3.389441
  H      -0.841010      5.516367     -0.964405
  H       0.454483      4.659108     -3.091994
  H      -2.094500      1.683634     -3.018502
  H      -4.008823     -1.740325     -2.202639
  H       1.530609      0.006300     -1.099075
  H      -0.014869     -3.752658     -2.557893
  H      -6.075771     -1.847488      1.586304
  H       1.666796     -3.698006     -4.403432
  H      -4.799416     -1.938303      3.396660
  H      -7.099080     -1.713329     -0.451033
  H       4.180546      0.017436     -3.305291
  H       3.563758     -0.936483     -5.143061
73
Coordinates from ORCA-job Inputs/Rutin_CPCM E -2249.229582675000
  O       0.948481      0.225566      1.791750
  O       0.933830      2.872360      1.109907
  O      -1.162935      3.546344      0.267659
  O       3.165560      2.318213      3.870551
  O       4.823715      0.095676      3.156475
  O       1.028144     -1.942321      1.076529
  O       3.471625     -2.363159      2.492424
  O       0.320766      5.524174     -1.281467
  O       1.290134      3.653315     -3.077903
  O      -0.667832      1.516832     -2.785057
  O      -1.842879     -1.841005     -1.113723
  O      -1.095236     -2.248482      2.882752
  O      -3.799814     -2.264117      3.261112
  O      -6.496793     -1.992533     -0.695541
  O       3.332268      0.328729     -2.671784
  O       3.041242     -1.334811     -4.961521
  C       1.234284      1.205904      2.792219
  C       2.761315      1.357719      2.894657
  C       3.409548     -0.006129      3.193613
  C       2.955910     -1.075551      2.189544
  C       0.881429      4.302519     -0.779974
  C       0.187617      3.910157      0.528912
  C       0.763455      3.186874     -1.839481
  C      -0.686530      2.693634     -1.979551
  C       1.419645     -1.068793      2.118458
  C       0.484382      2.467315      2.404204
  C      -1.299115      2.390909     -0.596653
  C      -2.783629      2.061944     -0.661383
  C      -0.297150     -1.893537      0.690019
  C      -0.561834     -1.786287     -0.637416
  C      -1.367312     -2.086936      1.684290
  C      -2.727829     -2.049454      1.132949
  C       0.423231     -1.692823     -1.731642
  C      -2.907473     -1.939742     -0.262236
  C      -3.916937     -2.147000      1.915514
  C      -4.154979     -1.912952     -0.882199
  C       1.464428     -0.752246     -1.680775
  C       0.282357     -2.511045     -2.863080
  C      -5.171099     -2.125181      1.313974
  C      -5.289695     -2.009223     -0.079608
  C       2.350306     -0.624998     -2.748067
  C       1.169385     -2.381173     -3.931450
  C       2.193088     -1.432890     -3.890324
  H       0.841490      0.870400      3.766552
  H       3.141580      1.737737      1.942061
  H       3.081744     -0.316830      4.203816
  H       3.339660     -0.821319      1.195335
  H       1.937641      4.515536     -0.596180
  H       0.118141      4.771310      1.206137
  H       1.380071      2.330955     -1.540411
  H      -1.286279      3.475820     -2.469879
  H       0.975635     -1.393916      3.065771
  H      -0.590197      2.256064      2.382351
  H       0.675548      3.256969      3.143193
  H      -0.749994      1.551028     -0.153520
  H      -3.177591      1.884330      0.345000
  H      -2.945585      1.154146     -1.254013
  H      -3.345102      2.886678     -1.115944
  H       2.806240      2.047813      4.734843
  H       5.046842      0.877297      3.692858
  H       3.211409     -2.590478      3.402225
  H      -0.648374      5.438491     -1.236276
  H       0.937204      4.555567     -3.184995
  H      -1.525320      1.441484     -3.232019
  H      -4.231329     -1.829737     -1.960230
  H       1.600541     -0.115948     -0.810889
  H      -0.520422     -3.240194     -2.911866
  H      -6.066231     -2.200817      1.927381
  H       1.071889     -2.997887     -4.820121
  H      -4.686921     -2.251176      3.662959
  H      -7.210478     -2.051838     -0.036216
  H       4.131836      0.023927     -3.136580
  H       3.314978     -0.407305     -5.082420
73
Coordinates from ORCA-job Inputs/Rutin_CPCM E -2249.230843873695
  O       0.976246      0.246199      1.793925
  O       0.942455      2.884200      1.099957
  O      -1.183368      3.642877      0.406572
  O       3.257540      2.327345      3.814956
  O       4.876294      0.081707      3.082646
  O       1.036627     -1.929237      1.081390
  O       3.483868     -2.365903      2.474801
  O       0.271737      5.506149     -1.306049
  O       1.005134      3.542450     -3.120071
  O      -1.048561      1.545986     -2.636711
  O      -1.769116     -1.860722     -1.188935
  O      -1.138498     -2.202895      2.831592
  O      -3.849988     -2.159201      3.136356
  O      -6.434129     -1.978347     -0.901346
  O       3.520935      0.151851     -2.634177
  O       3.247913     -1.551087     -4.897929
  C       1.291858      1.227568      2.787315
  C       2.821969      1.364979      2.854745
  C       3.461718     -0.002579      3.149953
  C       2.977893     -1.076133      2.166475
  C       0.806054      4.268838     -0.816412
  C       0.199055      3.942789      0.552244
  C       0.546914      3.138290     -1.834007
  C      -0.935165      2.730496     -1.851198
  C       1.440734     -1.053642      2.117835
  C       0.552398      2.502378      2.420381
  C      -1.447774      2.481746     -0.418013
  C      -2.946587      2.228720     -0.353104
  C      -0.277057     -1.870842      0.658991
  C      -0.501353     -1.799737     -0.679918
  C      -1.375484     -2.024099      1.627623
  C      -2.718719     -2.001117      1.035628
  C       0.513233     -1.748499     -1.750053
  C      -2.858741     -1.927960     -0.366722
  C      -3.930284     -2.078775      1.785770
  C      -4.087609     -1.912898     -1.023279
  C       1.585792     -0.844499     -1.684338
  C       0.376379     -2.578894     -2.873672
  C      -5.166672     -2.069671      1.148063
  C      -5.245284     -1.986190     -0.251082
  C       2.509757     -0.770569     -2.723446
  C       1.301871     -2.503170     -3.913737
  C       2.360613     -1.594998     -3.855100
  H       0.917647      0.896690      3.770721
  H       3.184780      1.733854      1.890696
  H       3.149306     -0.301126      4.168780
  H       3.349035     -0.837892      1.163506
  H       1.883120      4.429272     -0.720214
  H       0.222769      4.821532      1.209993
  H       1.132586      2.253493     -1.556460
  H      -1.526015      3.542053     -2.303284
  H       1.004506     -1.372938      3.070827
  H      -0.527001      2.320241      2.455930
  H       0.803366      3.293933      3.139355
  H      -0.905407      1.622852     -0.003936
  H      -3.263972      2.092468      0.686195
  H      -3.200951      1.318877     -0.907241
  H      -3.502353      3.071440     -0.781012
  H       2.912972      2.067056      4.688414
  H       5.121069      0.860506      3.613557
  H       3.238868     -2.578306      3.392449
  H      -0.694829      5.471478     -1.191081
  H       0.695202      4.460320     -3.228549
  H      -1.948272      1.506122     -2.997288
  H      -4.132399     -1.855895     -2.104713
  H       1.712307     -0.188357     -0.828870
  H      -0.450138     -3.279673     -2.935455
  H      -6.079187     -2.127768      1.737679
  H       1.210310     -3.132947     -4.793876
  H      -4.747927     -2.133482      3.512575
  H      -7.166197     -2.015552     -0.260931
  H       4.323804     -0.187749     -3.067661
  H       3.568104     -0.639505     -5.022424
73
Coordinates from ORCA-job Inputs/Rutin_CPCM E -2249.231301465310
  O       0.978228      0.225415      1.788077
  O       0.938058      2.879287      1.082295
  O      -1.196627      3.650339      0.431884
  O       3.266606      2.324221      3.783765
  O       4.884279      0.068851      3.068259
  O       1.045346     -1.953436      1.088307
  O       3.479946     -2.385327      2.504703
  O       0.233147      5.533758     -1.279528
  O       0.934999      3.598131     -3.132757
  O      -1.125610      1.611642     -2.654032
  O      -1.748940     -1.901993     -1.195986
  O      -1.131766     -2.199452      2.830558
  O      -3.843251     -2.116611      3.127751
  O      -6.415688     -1.946620     -0.918820
  O       3.556384      0.113298     -2.624229
  O       3.305531     -1.606099     -4.874566
  C       1.299400      1.214472      2.772415
  C       2.829407      1.352206      2.834419
  C       3.468630     -0.012080      3.142003
  C       2.982150     -1.097389      2.174450
  C       0.772669      4.289853     -0.816465
  C       0.188201      3.945593      0.557127
  C       0.494146      3.177043     -1.846388
  C      -0.990298      2.779977     -1.847297
  C       1.445316     -1.071260      2.121087
  C       0.559893      2.490575      2.404680
  C      -1.479752      2.506978     -0.410291
  C      -2.978406      2.256766     -0.323702
  C      -0.263638     -1.896618      0.657106
  C      -0.483154     -1.835300     -0.685282
  C      -1.363586     -2.051591      1.621146
  C      -2.706214     -2.008279      1.026914
  C       0.534368     -1.776767     -1.752902
  C      -2.841298     -1.948009     -0.376707
  C      -3.919059     -2.055269      1.776329
  C      -4.068321     -1.922998     -1.035626
  C       1.605790     -0.870877     -1.686244
  C       0.411718     -2.616624     -2.872370
  C      -5.154728     -2.034897      1.135632
  C      -5.228646     -1.968410     -0.264933
  C       2.541112     -0.806805     -2.715864
  C       1.347518     -2.550868     -3.903022
  C       2.405954     -1.642745     -3.841080
  H       0.927915      0.890881      3.759424
  H       3.191682      1.709712      1.865881
  H       3.160822     -0.299568      4.165340
  H       3.359709     -0.877889      1.169839
  H       1.851639      4.447453     -0.736235
  H       0.225810      4.817407      1.223755
  H       1.079904      2.286385     -1.591119
  H      -1.581885      3.604476     -2.273751
  H       1.005449     -1.386195      3.074900
  H      -0.519333      2.310417      2.450104
  H       0.815771      3.280810      3.123315
  H      -0.935086      1.637270     -0.022484
  H      -3.277117      2.098390      0.718055
  H      -3.247742      1.361326     -0.894233
  H      -3.539404      3.111469     -0.720354
  H       2.929041      2.068484      4.661293
  H       5.131453      0.856866      3.584292
  H       3.229374     -2.581014      3.424621
  H      -0.730312      5.505618     -1.138525
  H       0.635787      4.522202     -3.218624
  H      -2.038115      1.574489     -2.981622
  H      -4.110805     -1.875041     -2.117606
  H       1.716013     -0.198564     -0.843009
  H      -0.412287     -3.319580     -2.936761
  H      -6.069272     -2.069524      1.724029
  H       1.264295     -3.189713     -4.777379
  H      -4.743604     -2.093317      3.498426
  H      -7.148773     -1.966567     -0.278691
  H       4.361423     -0.237827     -3.043939
  H       3.633531     -0.697037     -4.994158
73
Coordinates from ORCA-job Inputs/Rutin_CPCM E -2249.231909830847
  O       0.973483      0.247022      1.784122
  O       0.975581      2.901557      1.050742
  O      -1.157146      3.664233      0.387747
  O       3.279446      2.333417      3.773006
  O       4.871835      0.045035      3.085205
  O       1.021554     -1.931710      1.099330
  O       3.426074     -2.395787      2.554623
  O       0.280500      5.531038     -1.339057
  O       0.991538      3.577539     -3.168682
  O      -1.081139      1.609970     -2.689335
  O      -1.780610     -1.916413     -1.170166
  O      -1.135895     -2.258167      2.845448
  O      -3.850649     -2.206969      3.160077
  O      -6.442658     -2.069912     -0.875834
  O       3.632371      0.025540     -2.496340
  O       3.249055     -1.476822     -4.876624
  C       1.305312      1.242199      2.758617
  C       2.836591      1.357322      2.831422
  C       3.454061     -0.012207      3.155933
  C       2.957616     -1.102813      2.200853
  C       0.814828      4.292469     -0.862374
  C       0.226175      3.961716      0.511911
  C       0.540262      3.171610     -1.882374
  C      -0.945673      2.781416     -1.887040
  C       1.422819     -1.051828      2.132352
  C       0.588874      2.527032      2.374628
  C      -1.440336      2.517956     -0.449493
  C      -2.939630      2.268830     -0.362678
  C      -0.288425     -1.890254      0.674670
  C      -0.514695     -1.818902     -0.669484
  C      -1.377502     -2.079663      1.641361
  C      -2.724978     -2.058050      1.055120
  C       0.490884     -1.722394     -1.743728
  C      -2.867890     -1.992018     -0.347924
  C      -3.932517     -2.138462      1.810115
  C      -4.097236     -1.992587     -1.001837
  C       1.623082     -0.899256     -1.617873
  C       0.307980     -2.456841     -2.929396
  C      -5.171459     -2.141471      1.173995
  C      -5.252764     -2.068843     -0.226171
  C       2.552996     -0.812478     -2.649975
  C       1.236959     -2.367283     -3.962737
  C       2.355675     -1.540968     -3.839142
  H       0.921694      0.936634      3.747088
  H       3.213045      1.698963      1.862623
  H       3.137958     -0.283957      4.181089
  H       3.351574     -0.905796      1.197998
  H       1.893854      4.450112     -0.779832
  H       0.261969      4.842025      1.167659
  H       1.122612      2.282701     -1.613985
  H      -1.532160      3.606730     -2.319252
  H       0.968454     -1.354314      3.083960
  H      -0.493211      2.366010      2.421081
  H       0.855114      3.318861      3.088013
  H      -0.898240      1.648844     -0.057303
  H      -3.238717      2.117415      0.680002
  H      -3.211531      1.370731     -0.927961
  H      -3.500277      3.122101     -0.763288
  H       2.933238      2.090150      4.650676
  H       5.129755      0.830119      3.600920
  H       3.166120     -2.569363      3.476448
  H      -0.683591      5.510222     -1.199672
  H       0.697193      4.502603     -3.265275
  H      -2.008748      1.540492     -2.966418
  H      -4.145925     -1.937583     -2.083195
  H       1.779059     -0.298152     -0.730550
  H      -0.561292     -3.095562     -3.042860
  H      -6.082729     -2.200358      1.765496
  H       1.103097     -2.923770     -4.885721
  H      -4.751822     -2.228153      3.529518
  H      -7.171655     -2.112292     -0.231737
  H       4.407655     -0.351075     -2.948376
  H       3.658859     -0.594240     -4.904555
73
Coordinates from ORCA-job Inputs/Rutin_CPCM E -2249.232221044581
  O       0.963011      0.228391      1.789206
  O       0.993179      2.896757      1.024128
  O      -1.131173      3.649216      0.325440
  O       3.274892      2.341145      3.743432
  O       4.854179      0.025193      3.121276
  O       1.007171     -1.960180      1.138044
  O       3.390834     -2.417445      2.632469
  O       0.323155      5.564035     -1.332185
  O       1.085571      3.665597     -3.188425
  O      -0.967510      1.659876     -2.791216
  O      -1.803046     -1.941470     -1.121819
  O      -1.133434     -2.332636      2.882002
  O      -3.848930     -2.291916      3.213194
  O      -6.462055     -2.130938     -0.809387
  O       3.584989      0.063295     -2.477120
  O       3.143859     -1.345830     -4.901311
  C       1.298855      1.239860      2.746657
  C       2.830063      1.345218      2.824791
  C       3.435279     -0.020337      3.182577
  C       2.938290     -1.127751      2.247024
  C       0.859607      4.321590     -0.870015
  C       0.245210      3.958087      0.484215
  C       0.618079      3.222461     -1.920765
  C      -0.862827      2.815163     -1.961314
  C       1.404800     -1.066467      2.162133
  C       0.590961      2.522188      2.343116
  C      -1.385604      2.517148     -0.539954
  C      -2.883406      2.250703     -0.486005
  C      -0.302295     -1.927137      0.712655
  C      -0.534804     -1.837235     -0.631416
  C      -1.384193     -2.136001      1.682091
  C      -2.734962     -2.116284      1.104543
  C       0.457012     -1.708613     -1.715349
  C      -2.886470     -2.035345     -0.297119
  C      -3.938472     -2.212914      1.864595
  C      -4.118074     -2.038689     -0.945856
  C       1.593900     -0.891778     -1.586164
  C       0.253017     -2.404866     -2.921186
  C      -5.180482     -2.214460      1.234230
  C      -5.269253     -2.129849     -0.164727
  C       2.501902     -0.771388     -2.633874
  C       1.157505     -2.278613     -3.971677
  C       2.277466     -1.454935     -3.845332
  H       0.909303      0.955595      3.739419
  H       3.214471      1.660444      1.850302
  H       3.106983     -0.270255      4.209710
  H       3.345156     -0.956150      1.244725
  H       1.934978      4.487480     -0.758715
  H       0.257143      4.828266      1.154174
  H       1.208559      2.336393     -1.661839
  H      -1.448568      3.644471     -2.387557
  H       0.940185     -1.352043      3.114219
  H      -0.491920      2.362199      2.377729
  H       0.848389      3.315919      3.058019
  H      -0.841265      1.646465     -0.154350
  H      -3.200210      2.077380      0.547855
  H      -3.134996      1.359630     -1.071319
  H      -3.445619      3.104528     -0.883258
  H       2.932082      2.115743      4.627308
  H       5.112556      0.821762      3.619229
  H       3.117435     -2.569383      3.554279
  H      -0.642252      5.535698     -1.203389
  H       0.782758      4.590330     -3.262729
  H      -1.894372      1.569688     -3.065356
  H      -4.173424     -1.972235     -2.026175
  H       1.770189     -0.321087     -0.683130
  H      -0.619213     -3.038774     -3.039093
  H      -6.088478     -2.282513      1.829807
  H       1.000271     -2.801740     -4.910356
  H      -4.748614     -2.343999      3.583487
  H      -7.187688     -2.190028     -0.162623
  H       4.354207     -0.306603     -2.945332
  H       3.561861     -0.466125     -4.895045
73
Coordinates from ORCA-job Inputs/Rutin_CPCM E -2249.232575498156
  O       0.936173      0.197428      1.791432
  O       1.002084      2.871016      0.987063
  O      -1.091496      3.604837      0.183507
  O       3.229567      2.352178      3.720162
  O       4.812991      0.020684      3.179642
  O       0.990417     -1.998609      1.176393
  O       3.356568     -2.431551      2.708389
  O       0.426629      5.596512     -1.327757
  O       1.302761      3.781334     -3.203676
  O      -0.729932      1.734029     -2.990805
  O      -1.861226     -1.964104     -1.032486
  O      -1.107182     -2.453545      2.941873
  O      -3.815365     -2.467735      3.326840
  O      -6.511161     -2.223522     -0.637768
  O       3.516326      0.104606     -2.397235
  O       2.946216     -1.069192     -4.917418
  C       1.264138      1.229147      2.729794
  C       2.794430      1.333246      2.823198
  C       3.393688     -0.023629      3.220044
  C       2.908868     -1.148115      2.297284
  C       0.952230      4.344357     -0.877525
  C       0.267661      3.932301      0.428090
  C       0.782699      3.280776     -1.978602
  C      -0.687480      2.853610     -2.109058
  C       1.376949     -1.089469      2.191829
  C       0.559213      2.498960      2.293150
  C      -1.277255      2.495267     -0.728092
  C      -2.769556      2.197138     -0.756195
  C      -0.325327     -1.985276      0.767699
  C      -0.583704     -1.852943     -0.568379
  C      -1.385034     -2.242296      1.749997
  C      -2.746959     -2.222009      1.202472
  C       0.376585     -1.659920     -1.669088
  C      -2.928339     -2.100895     -0.192716
  C      -3.934206     -2.353711      1.982678
  C      -4.171553     -2.101430     -0.818256
  C       1.537315     -0.880796     -1.516881
  C       0.117926     -2.252361     -2.919664
  C      -5.188173     -2.348470      1.377034
  C      -5.305769     -2.228023     -0.016714
  C       2.410298     -0.695148     -2.582692
  C       0.984378     -2.054346     -3.990952
  C       2.124185     -1.262256     -3.840629
  H       0.863590      0.969342      3.724976
  H       3.191259      1.622958      1.845111
  H       3.046555     -0.255007      4.245531
  H       3.329104     -0.991707      1.297912
  H       2.017348      4.516156     -0.697380
  H       0.225539      4.785636      1.117954
  H       1.376328      2.395423     -1.721579
  H      -1.262263      3.693745     -2.530503
  H       0.902352     -1.360321      3.143030
  H      -0.522794      2.327450      2.292960
  H       0.785725      3.299062      3.011726
  H      -0.732361      1.624950     -0.341716
  H      -3.133278      1.994446      0.256439
  H      -2.972506      1.312246     -1.369539
  H      -3.329317      3.046455     -1.166062
  H       2.889701      2.141779      4.609069
  H       5.063291      0.828707      3.663223
  H       3.070798     -2.569978      3.628482
  H      -0.543191      5.556584     -1.243477
  H       0.985980      4.703194     -3.252729
  H      -1.648864      1.614334     -3.280805
  H      -4.250528     -2.004412     -1.894713
  H       1.763216     -0.393436     -0.576361
  H      -0.770015     -2.860210     -3.056525
  H      -6.083407     -2.440689      1.988631
  H       0.778803     -2.493914     -4.962574
  H      -4.705765     -2.559076      3.711540
  H      -7.223303     -2.315220      0.020035
  H       4.273373     -0.262202     -2.888136
  H       3.399750     -0.210473     -4.834903
73
Coordinates from ORCA-job Inputs/Rutin_CPCM E -2249.232763940924
  O       0.922253      0.169755      1.782661
  O       0.999384      2.861339      0.968805
  O      -1.077676      3.574828      0.116136
  O       3.200024      2.349447      3.701540
  O       4.792664      0.017849      3.195348
  O       0.981249     -2.034685      1.191571
  O       3.348201     -2.442138      2.731786
  O       0.440191      5.649917     -1.280653
  O       1.400088      3.927689     -3.191976
  O      -0.578364      1.819254     -3.104314
  O      -1.898072     -1.962132     -0.986049
  O      -1.094954     -2.526473      2.967547
  O      -3.797397     -2.564718      3.384961
  O      -6.542712     -2.233986     -0.538767
  O       3.433972      0.173042     -2.401070
  O       2.876907     -1.029799     -4.906463
  C       1.243386      1.211062      2.712522
  C       2.772781      1.320841      2.811537
  C       3.373399     -0.031050      3.225658
  C       2.896915     -1.164104      2.308284
  C       0.980714      4.393851     -0.855662
  C       0.265145      3.925181      0.414211
  C       0.866519      3.366786     -1.998281
  C      -0.587954      2.906366     -2.182518
  C       1.365198     -1.111823      2.196801
  C       0.532649      2.473117      2.262582
  C      -1.204064      2.486863     -0.831334
  C      -2.685243      2.144746     -0.911634
  C      -0.338763     -2.017166      0.793469
  C      -0.613813     -1.862096     -0.535404
  C      -1.388198     -2.290467      1.784329
  C      -2.756516     -2.267372      1.253629
  C       0.331699     -1.646459     -1.644725
  C      -2.954675     -2.116202     -0.136015
  C      -3.933173     -2.419224      2.045143
  C      -4.205672     -2.103857     -0.745583
  C       1.480113     -0.847265     -1.501722
  C       0.074557     -2.244415     -2.892843
  C      -5.194738     -2.403253      1.455853
  C      -5.329614     -2.250786      0.067047
  C       2.342622     -0.650063     -2.574037
  C       0.932730     -2.038038     -3.969390
  C       2.060594     -1.227568     -3.827537
  H       0.839762      0.958409      3.708236
  H       3.173954      1.601272      1.832671
  H       3.021111     -0.255173      4.250835
  H       3.321296     -1.013945      1.309564
  H       2.035768      4.580865     -0.636272
  H       0.183160      4.756031      1.127362
  H       1.478973      2.489721     -1.759692
  H      -1.172766      3.746552     -2.589734
  H       0.889552     -1.374371      3.149865
  H      -0.546147      2.283669      2.234449
  H       0.728609      3.273089      2.990010
  H      -0.643750      1.622373     -0.453495
  H      -3.071737      1.907603      0.084934
  H      -2.843326      1.267756     -1.549743
  H      -3.258694      2.985894     -1.319271
  H       2.865350      2.140138      4.592580
  H       5.036875      0.838293      3.660572
  H       3.055672     -2.576751      3.650251
  H      -0.530019      5.589480     -1.215303
  H       1.067002      4.844923     -3.207432
  H      -1.486286      1.685658     -3.421417
  H      -4.299174     -1.983392     -1.818542
  H       1.704383     -0.355389     -0.563701
  H      -0.801306     -2.870980     -3.021968
  H      -6.081720     -2.511445      2.076809
  H       0.730350     -2.488814     -4.936502
  H      -4.681523     -2.676496      3.778290
  H      -7.246551     -2.347557      0.124375
  H       4.203644     -0.198084     -2.868888
  H       3.330879     -0.172226     -4.818685
73
Coordinates from ORCA-job Inputs/Rutin_CPCM E -2249.233001609799
  O       0.916490      0.175537      1.773487
  O       1.011542      2.884474      0.962733
  O      -1.058363      3.602825      0.100289
  O       3.218795      2.351880      3.666883
  O       4.787088      0.005873      3.176567
  O       0.959135     -2.042144      1.201532
  O       3.331280     -2.443832      2.730399
  O       0.459548      5.711184     -1.245237
  O       1.429608      4.033763     -3.184789
  O      -0.525954      1.903327     -3.143337
  O      -1.927270     -1.978009     -0.972490
  O      -1.111389     -2.536946      2.980745
  O      -3.810593     -2.639686      3.397159
  O      -6.567608     -2.305775     -0.517421
  O       3.383488      0.189279     -2.403665
  O       2.870963     -1.091623     -4.881840
  C       1.246924      1.219205      2.699018
  C       2.777452      1.320823      2.785933
  C       3.368769     -0.032798      3.209613
  C       2.881510     -1.168116      2.300615
  C       1.003408      4.448533     -0.839536
  C       0.279975      3.955239      0.417210
  C       0.899848      3.442817     -2.003381
  C      -0.549826      2.971019     -2.200527
  C       1.349063     -1.108677      2.195324
  C       0.540143      2.486190      2.252985
  C      -1.164077      2.522686     -0.858859
  C      -2.639019      2.159121     -0.951357
  C      -0.363408     -2.024739      0.804907
  C      -0.641564     -1.872519     -0.521603
  C      -1.409517     -2.311706      1.797002
  C      -2.777934     -2.307255      1.267507
  C       0.301533     -1.657923     -1.632916
  C      -2.980225     -2.147976     -0.120400
  C      -3.951561     -2.480880      2.059152
  C      -4.232751     -2.144338     -0.727565
  C       1.442009     -0.846792     -1.494941
  C       0.053929     -2.274776     -2.873197
  C      -5.213897     -2.477997      1.472488
  C      -5.353348     -2.312618      0.085506
  C       2.308162     -0.657141     -2.565979
  C       0.921266     -2.083843     -3.945482
  C       2.044321     -1.265372     -3.808574
  H       0.849386      0.967876      3.697328
  H       3.172940      1.589527      1.801637
  H       3.017312     -0.245297      4.237589
  H       3.300423     -1.026225      1.298207
  H       2.055881      4.635416     -0.609385
  H       0.187701      4.773087      1.143798
  H       1.519975      2.566920     -1.782737
  H      -1.142934      3.812605     -2.592545
  H       0.875237     -1.360720      3.152356
  H      -0.538397      2.296508      2.216340
  H       0.733535      3.281611      2.985598
  H      -0.591938      1.663875     -0.487031
  H      -3.029502      1.917885      0.042762
  H      -2.777804      1.278232     -1.588012
  H      -3.221726      2.990531     -1.365517
  H       2.890008      2.149681      4.561566
  H       5.039267      0.830756      3.629275
  H       3.043690     -2.572519      3.651232
  H      -0.510959      5.642220     -1.192110
  H       1.091848      4.949294     -3.179049
  H      -1.430899      1.766623     -3.466879
  H      -4.329454     -2.016994     -1.799456
  H       1.655011     -0.337213     -0.564239
  H      -0.816162     -2.910234     -2.997889
  H      -6.097680     -2.605261      2.094489
  H       0.731452     -2.555232     -4.905278
  H      -4.692249     -2.751554      3.795798
  H      -7.269498     -2.432970      0.144997
  H       4.174606     -0.193050     -2.823753
  H       3.338683     -0.241771     -4.797450
73
Coordinates from ORCA-job Inputs/Rutin_CPCM E -2249.233149186308
  O       0.904287      0.165890      1.759422
  O       1.021000      2.886614      0.941134
  O      -1.027954      3.600616      0.024401
  O       3.204545      2.353229      3.642230
  O       4.763537     -0.003664      3.188489
  O       0.938441     -2.060354      1.215979
  O       3.305798     -2.450832      2.754755
  O       0.508250      5.754036     -1.223356
  O       1.541029      4.140278     -3.175912
  O      -0.384389      1.985164     -3.242018
  O      -1.974365     -1.991784     -0.927335
  O      -1.101746     -2.610009      3.006802
  O      -3.795560     -2.765731      3.451431
  O      -6.603962     -2.380842     -0.421441
  O       3.308643      0.237967     -2.370108
  O       2.783446     -1.004648     -4.864909
  C       1.231603      1.216458      2.678728
  C       2.762192      1.315202      2.769823
  C       3.345591     -0.036684      3.212203
  C       2.859407     -1.179000      2.311390
  C       1.052553      4.486333     -0.832916
  C       0.296702      3.959871      0.390715
  C       0.990069      3.510056     -2.024880
  C      -0.448027      3.025259     -2.271259
  C       1.327334     -1.115882      2.198561
  C       0.527828      2.481572      2.222252
  C      -1.088603      2.536285     -0.956772
  C      -2.553348      2.146935     -1.096526
  C      -0.388769     -2.053434      0.831012
  C      -0.683253     -1.885980     -0.488953
  C      -1.418956     -2.368401      1.831477
  C      -2.793046     -2.376792      1.317280
  C       0.245418     -1.645162     -1.606871
  C      -3.013895     -2.191629     -0.064751
  C      -3.955003     -2.581551      2.118885
  C      -4.273916     -2.188786     -0.656214
  C       1.385258     -0.834670     -1.461618
  C      -0.012173     -2.236686     -2.857444
  C      -5.224270     -2.583430      1.547556
  C      -5.382554     -2.387917      0.166186
  C       2.239641     -0.617563     -2.536574
  C       0.846415     -2.022212     -3.932396
  C       1.969896     -1.204422     -3.787865
  H       0.830160      0.970701      3.676652
  H       3.161771      1.571254      1.784075
  H       2.986796     -0.235489      4.240460
  H       3.281473     -1.047198      1.308982
  H       2.096185      4.677048     -0.568759
  H       0.173696      4.762731      1.129178
  H       1.615982      2.636026     -1.813810
  H      -1.043397      3.869290     -2.654568
  H       0.847382     -1.354416      3.156364
  H      -0.548606      2.285652      2.163645
  H       0.703989      3.276729      2.958950
  H      -0.511233      1.681882     -0.584861
  H      -2.968147      1.892387     -0.115540
  H      -2.656589      1.267326     -1.741532
  H      -3.139518      2.970050     -1.522266
  H       2.873517      2.159207      4.537721
  H       5.016120      0.829805      3.624967
  H       3.015056     -2.571017      3.675700
  H      -0.462731      5.672518     -1.204125
  H       1.199089      5.053941     -3.147499
  H      -1.279719      1.840363     -3.588242
  H      -4.385052     -2.039148     -1.723809
  H       1.603254     -0.341958     -0.523163
  H      -0.884066     -2.868113     -2.989402
  H      -6.098296     -2.735799      2.177700
  H       0.648757     -2.472539     -4.900678
  H      -4.670832     -2.885592      3.861462
  H      -7.296765     -2.528801      0.246036
  H       4.115078     -0.153028     -2.750944
  H       3.277254     -0.173612     -4.747689
73
Coordinates from ORCA-job Inputs/Rutin_CPCM E -2249.233323485820
  O       0.901437      0.170561      1.749262
  O       1.022617      2.897811      0.938870
  O      -1.022171      3.648567      0.030955
  O       3.216427      2.355507      3.616688
  O       4.762734     -0.008760      3.167362
  O       0.929315     -2.057588      1.214568
  O       3.294250     -2.451704      2.755314
  O       0.542543      5.782555     -1.206223
  O       1.554092      4.165695     -3.167351
  O      -0.409042      2.042723     -3.247229
  O      -1.982558     -2.024625     -0.930977
  O      -1.100312     -2.611022      3.009307
  O      -3.795733     -2.779374      3.457397
  O      -6.607414     -2.455744     -0.418654
  O       3.306002      0.211775     -2.360203
  O       2.797297     -1.040559     -4.852550
  C       1.232558      1.219793      2.669566
  C       2.764062      1.316166      2.751008
  C       3.344521     -0.035833      3.196539
  C       2.851289     -1.181151      2.304851
  C       1.069613      4.505489     -0.824751
  C       0.309609      3.983088      0.397406
  C       0.990477      3.538033     -2.021743
  C      -0.455638      3.079178     -2.270868
  C       1.318770     -1.112174      2.193171
  C       0.532458      2.490167      2.221188
  C      -1.103525      2.593055     -0.958518
  C      -2.575069      2.232100     -1.102147
  C      -0.397229     -2.062200      0.829261
  C      -0.692173     -1.909880     -0.492312
  C      -1.422489     -2.374954      1.834384
  C      -2.796631     -2.400923      1.319647
  C       0.240831     -1.677411     -1.609276
  C      -3.018905     -2.228797     -0.064265
  C      -3.956800     -2.609342      2.123590
  C      -4.279608     -2.243091     -0.654475
  C       1.377178     -0.863261     -1.459846
  C      -0.005676     -2.277855     -2.857949
  C      -5.226281     -2.629764      1.552334
  C      -5.386357     -2.446174      0.169072
  C       2.239873     -0.649180     -2.528415
  C       0.859635     -2.064216     -3.927670
  C       1.981575     -1.243675     -3.778315
  H       0.834764      0.970146      3.667750
  H       3.157400      1.566677      1.761276
  H       2.989172     -0.225917      4.227733
  H       3.270141     -1.058015      1.300186
  H       2.116759      4.681770     -0.564244
  H       0.201595      4.783458      1.140871
  H       1.600370      2.651192     -1.817437
  H      -1.038721      3.934147     -2.648461
  H       0.836250     -1.345874      3.151192
  H      -0.545547      2.302269      2.167814
  H       0.719254      3.281459      2.959031
  H      -0.543965      1.724545     -0.593496
  H      -2.995738      1.981016     -0.122628
  H      -2.693073      1.358761     -1.752464
  H      -3.146522      3.068467     -1.522326
  H       2.884647      2.168805      4.513381
  H       5.020168      0.828932      3.592888
  H       3.006706     -2.563838      3.678284
  H      -0.429408      5.711606     -1.196809
  H       1.234611      5.087320     -3.130368
  H      -1.305089      1.920323     -3.600865
  H      -4.391518     -2.101776     -1.723123
  H       1.585126     -0.364842     -0.522006
  H      -0.878159     -2.907390     -2.994878
  H      -6.098566     -2.786390      2.183766
  H       0.669198     -2.515294     -4.897069
  H      -4.670776     -2.887212      3.871290
  H      -7.299014     -2.600137      0.250858
  H       4.126888     -0.197722     -2.686724
  H       3.313190     -0.225595     -4.715825
73
Coordinates from ORCA-job Inputs/Rutin_CPCM E -2249.233585089828
  O       0.894943      0.173687      1.743850
  O       1.035298      2.906504      0.932293
  O      -0.997390      3.672845      0.009506
  O       3.224966      2.360050      3.590281
  O       4.752949     -0.018087      3.168790
  O       0.913422     -2.056567      1.223090
  O       3.266252     -2.456719      2.784105
  O       0.587819      5.808108     -1.195858
  O       1.616403      4.202578     -3.155996
  O      -0.352267      2.080015     -3.269250
  O      -2.002107     -2.058562     -0.916933
  O      -1.103998     -2.626319      3.024228
  O      -3.794724     -2.820502      3.479103
  O      -6.619378     -2.553860     -0.393027
  O       3.249581      0.248634     -2.371692
  O       2.734384     -0.992863     -4.860419
  C       1.230132      1.225218      2.660466
  C       2.762296      1.314513      2.737980
  C       3.334155     -0.036139      3.196731
  C       2.834628     -1.187903      2.317602
  C       1.105979      4.526456     -0.818367
  C       0.332089      3.998028      0.392089
  C       1.037141      3.568356     -2.022479
  C      -0.407171      3.114924     -2.290978
  C       1.302668     -1.109338      2.198360
  C       0.536578      2.497746      2.210854
  C      -1.074033      2.625329     -0.988711
  C      -2.545868      2.275062     -1.153381
  C      -0.413336     -2.073229      0.840612
  C      -0.712934     -1.926393     -0.481537
  C      -1.431224     -2.398816      1.849020
  C      -2.806371     -2.438221      1.337700
  C       0.216651     -1.690646     -1.601406
  C      -3.033417     -2.275025     -0.046431
  C      -3.962092     -2.656910      2.145480
  C      -4.295208     -2.310567     -0.633434
  C       1.342621     -0.861220     -1.456783
  C      -0.029239     -2.290319     -2.850710
  C      -5.232749     -2.696558      1.577139
  C      -5.397803     -2.523319      0.192961
  C       2.195059     -0.631073     -2.529665
  C       0.824464     -2.058786     -3.925674
  C       1.935046     -1.221520     -3.780573
  H       0.831654      0.979582      3.659263
  H       3.153801      1.551875      1.744066
  H       2.976238     -0.212227      4.229666
  H       3.256789     -1.080014      1.312535
  H       2.151194      4.698917     -0.547382
  H       0.220006      4.793766      1.139871
  H       1.641638      2.677806     -1.818622
  H      -0.983981      3.972092     -2.673005
  H       0.813462     -1.333160      3.155094
  H      -0.542271      2.315531      2.153110
  H       0.724301      3.286964      2.950789
  H      -0.525908      1.749454     -0.623137
  H      -2.980262      2.017799     -0.181457
  H      -2.660228      1.409350     -1.814106
  H      -3.108002      3.118935     -1.571254
  H       2.890090      2.188459      4.488979
  H       5.013641      0.825294      3.581255
  H       2.975407     -2.554663      3.707683
  H      -0.384240      5.739830     -1.203646
  H       1.302670      5.126111     -3.113444
  H      -1.242055      1.969892     -3.642647
  H      -4.410385     -2.175453     -1.702559
  H       1.549684     -0.364920     -0.517553
  H      -0.895386     -2.929470     -2.984985
  H      -6.101596     -2.861918      2.211012
  H       0.633663     -2.506451     -4.896637
  H      -4.667662     -2.930609      3.896748
  H      -7.307968     -2.700389      0.279203
  H       4.085007     -0.170120     -2.646532
  H       3.272184     -0.196954     -4.695641
73
Coordinates from ORCA-job Inputs/Rutin_CPCM E -2249.233959592530
  O       0.892572      0.165976      1.735030
  O       1.048215      2.902756      0.917635
  O      -0.971628      3.651358     -0.035521
  O       3.239669      2.359323      3.547426
  O       4.741722     -0.040503      3.183119
  O       0.898572     -2.058412      1.227435
  O       3.219522     -2.476724      2.845536
  O       0.603396      5.835009     -1.168461
  O       1.710403      4.282344     -3.128093
  O      -0.219783      2.121450     -3.322451
  O      -2.028686     -2.088642     -0.887285
  O      -1.100826     -2.656106      3.048881
  O      -3.785773     -2.855901      3.521622
  O      -6.635181     -2.643345     -0.338605
  O       3.141687      0.346725     -2.410648
  O       2.610549     -0.870233     -4.876404
  C       1.230514      1.221302      2.644514
  C       2.763271      1.300572      2.720470
  C       3.321558     -0.046141      3.205099
  C       2.815092     -1.210581      2.346840
  C       1.134319      4.556111     -0.801628
  C       0.343234      3.992512      0.380743
  C       1.112945      3.618661     -2.021683
  C      -0.315675      3.145609     -2.334371
  C       1.285924     -1.115754      2.204895
  C       0.536077      2.487667      2.187291
  C      -1.010947      2.625039     -1.056958
  C      -2.474263      2.258594     -1.263623
  C      -0.430557     -2.086615      0.860854
  C      -0.741676     -1.938305     -0.460726
  C      -1.436032     -2.429434      1.875699
  C      -2.815268     -2.472427      1.373201
  C       0.179738     -1.692888     -1.585730
  C      -3.051424     -2.317323     -0.010231
  C      -3.963644     -2.699844      2.188631
  C      -4.315298     -2.373026     -0.589894
  C       1.283353     -0.831223     -1.453391
  C      -0.066430     -2.291006     -2.836361
  C      -5.237657     -2.754574      1.627373
  C      -5.411495     -2.593160      0.242696
  C       2.110953     -0.571093     -2.537011
  C       0.760901     -2.026722     -3.923520
  C       1.845107     -1.153185     -3.788708
  H       0.830321      0.985129      3.644912
  H       3.154330      1.514656      1.720708
  H       2.957267     -0.199131      4.239733
  H       3.250279     -1.130871      1.344521
  H       2.170311      4.744835     -0.506184
  H       0.200317      4.774229      1.138052
  H       1.727258      2.734266     -1.817806
  H      -0.897278      3.996658     -2.722043
  H       0.780882     -1.324263      3.156237
  H      -0.541388      2.299904      2.118009
  H       0.708671      3.277273      2.931182
  H      -0.462720      1.746419     -0.695970
  H      -2.925945      1.964212     -0.310251
  H      -2.561125      1.413782     -1.955639
  H      -3.041615      3.107399     -1.664414
  H       2.897201      2.217229      4.448718
  H       5.002743      0.814225      3.572272
  H       2.914612     -2.547276      3.767252
  H      -0.366654      5.751445     -1.205723
  H       1.382081      5.200489     -3.074747
  H      -1.089905      2.026329     -3.743196
  H      -4.436399     -2.242995     -1.659066
  H       1.489563     -0.336495     -0.512723
  H      -0.915320     -2.955432     -2.961168
  H      -6.101664     -2.925130      2.266311
  H       0.569643     -2.472801     -4.895212
  H      -4.655657     -2.974003      3.943435
  H      -7.318533     -2.790373      0.339065
  H       4.000271     -0.090600     -2.560637
  H       3.197104     -0.123050     -4.653718
73
Coordinates from ORCA-job Inputs/Rutin_CPCM E -2249.234249536842
  O       0.885235      0.174702      1.729119
  O       1.064907      2.918006      0.905544
  O      -0.944024      3.694410     -0.048868
  O       3.254969      2.362339      3.518879
  O       4.733652     -0.052666      3.176254
  O       0.881931     -2.053845      1.230845
  O       3.185412     -2.479066      2.872073
  O       0.659033      5.865132     -1.170087
  O       1.753082      4.306845     -3.133567
  O      -0.200514      2.167171     -3.338526
  O      -2.047523     -2.131422     -0.879009
  O      -1.107504     -2.672856      3.057996
  O      -3.788142     -2.898256      3.536590
  O      -6.645226     -2.755065     -0.321308
  O       3.111485      0.350080     -2.407609
  O       2.574664     -0.840298     -4.865670
  C       1.232168      1.232587      2.633010
  C       2.765504      1.300211      2.704044
  C       3.313046     -0.046245      3.200202
  C       2.796325     -1.215117      2.355217
  C       1.173338      4.578330     -0.806790
  C       0.373503      4.018367      0.371622
  C       1.144998      3.646409     -2.030602
  C      -0.287699      3.191129     -2.349102
  C       1.268514     -1.109238      2.206475
  C       0.548801      2.505092      2.174762
  C      -0.993329      2.674911     -1.075643
  C      -2.460717      2.329778     -1.288348
  C      -0.447680     -2.099020      0.867684
  C      -0.762687     -1.960094     -0.454458
  C      -1.446639     -2.452786      1.884672
  C      -2.826320     -2.515126      1.384264
  C       0.156105     -1.706752     -1.579215
  C      -3.066031     -2.371570      0.000328
  C      -3.969799     -2.754536      2.202657
  C      -4.329919     -2.450882     -0.576993
  C       1.256561     -0.840497     -1.443743
  C      -0.090864     -2.294760     -2.835021
  C      -5.243676     -2.832416      1.643618
  C      -5.421595     -2.682776      0.258248
  C       2.079408     -0.570198     -2.527212
  C       0.732353     -2.019843     -3.922684
  C       1.813449     -1.142443     -3.782518
  H       0.832055      1.003135      3.635124
  H       3.154403      1.500991      1.700447
  H       2.949804     -0.185626      4.237057
  H       3.235967     -1.153170      1.353554
  H       2.210776      4.754293     -0.508539
  H       0.237961      4.798675      1.131753
  H       1.748138      2.754195     -1.828227
  H      -0.858227      4.049014     -2.737705
  H       0.758513     -1.309994      3.156817
  H      -0.530486      2.327836      2.106054
  H       0.728454      3.292603      2.919403
  H      -0.458200      1.786404     -0.718501
  H      -2.918210      2.031626     -0.338910
  H      -2.557222      1.494402     -1.989787
  H      -3.016458      3.190183     -1.680711
  H       2.910535      2.235461      4.421671
  H       5.001458      0.805201      3.553636
  H       2.876798     -2.533137      3.793771
  H      -0.311669      5.794205     -1.213888
  H       1.434723      5.228315     -3.078447
  H      -1.067663      2.089493     -3.768580
  H      -4.454221     -2.328279     -1.646699
  H       1.462757     -0.351589     -0.500219
  H      -0.936604     -2.962662     -2.962332
  H      -6.104294     -3.011420      2.284791
  H       0.541481     -2.460491     -4.896896
  H      -4.655732     -3.028090      3.959685
  H      -7.325265     -2.906676      0.358691
  H       3.971563     -0.106149     -2.465472
  H       3.196012     -0.132577     -4.609070
73
Coordinates from ORCA-job Inputs/Rutin_CPCM E -2249.234609661403
  O       0.885018      0.191007      1.734970
  O       1.074839      2.934836      0.902319
  O      -0.937645      3.758263     -0.002938
  O       3.277715      2.363766      3.515071
  O       4.744000     -0.056686      3.154765
  O       0.885785     -2.038353      1.217351
  O       3.172978     -2.475425      2.874715
  O       0.696048      5.875182     -1.194893
  O       1.691957      4.255739     -3.171613
  O      -0.327543      2.175661     -3.290891
  O      -2.030858     -2.171377     -0.904188
  O      -1.119940     -2.643556      3.043732
  O      -3.802629     -2.862858      3.509065
  O      -6.631988     -2.807222     -0.370096
  O       3.167957      0.282272     -2.426204
  O       2.648902     -0.920714     -4.852480
  C       1.245767      1.248416      2.634741
  C       2.779180      1.305443      2.700300
  C       3.323361     -0.043831      3.190895
  C       2.795932     -1.210249      2.349767
  C       1.182173      4.577842     -0.828569
  C       0.398366      4.051029      0.376959
  C       1.095877      3.631046     -2.039733
  C      -0.357084      3.215944     -2.315456
  C       1.269437     -1.098959      2.201884
  C       0.572822      2.530066      2.179849
  C      -1.045424      2.736182     -1.020210
  C      -2.528765      2.443164     -1.191490
  C      -0.443131     -2.097183      0.852151
  C      -0.750885     -1.979244     -0.473749
  C      -1.449473     -2.438174      1.864753
  C      -2.825686     -2.517944      1.355948
  C       0.173254     -1.727416     -1.591729
  C      -3.056722     -2.401276     -0.031700
  C      -3.972900     -2.750442      2.169890
  C      -4.316038     -2.497332     -0.617155
  C       1.279543     -0.866533     -1.453430
  C      -0.069597     -2.316620     -2.848293
  C      -5.241829     -2.846077      1.603728
  C      -5.411534     -2.721768      0.215607
  C       2.112108     -0.615982     -2.532684
  C       0.766423     -2.064302     -3.932293
  C       1.856618     -1.199258     -3.786664
  H       0.849003      1.025577      3.640196
  H       3.164511      1.506131      1.695184
  H       2.970114     -0.184727      4.230478
  H       3.240025     -1.156401      1.349555
  H       2.231007      4.724616     -0.555759
  H       0.304405      4.840945      1.133588
  H       1.677993      2.725582     -1.836716
  H      -0.908251      4.085882     -2.704646
  H       0.761972     -1.308138      3.151875
  H      -0.509590      2.367061      2.127670
  H       0.771154      3.315812      2.922080
  H      -0.528456      1.832362     -0.673579
  H      -2.968046      2.146035     -0.233366
  H      -2.676029      1.623314     -1.901725
  H      -3.063428      3.328047     -1.557607
  H       2.933690      2.242407      4.418645
  H       5.019050      0.795172      3.539770
  H       2.860635     -2.522194      3.795780
  H      -0.277333      5.836149     -1.207339
  H       1.388444      5.182490     -3.133207
  H      -1.202949      2.128710     -3.707068
  H      -4.434833     -2.394113     -1.689528
  H       1.482817     -0.370547     -0.513121
  H      -0.914885     -2.984914     -2.974247
  H      -6.106361     -3.015251      2.242292
  H       0.583076     -2.520994     -4.900338
  H      -4.671240     -3.012472      3.923618
  H      -7.315037     -2.953614      0.307918
  H       4.004975     -0.212359     -2.349639
  H       3.292875     -0.243745     -4.567166
73
Coordinates from ORCA-job Inputs/Rutin_CPCM E -2249.234921396789
  O       0.881323      0.188022      1.732013
  O       1.075663      2.933806      0.899874
  O      -0.929036      3.778833     -0.008207
  O       3.274471      2.363205      3.508895
  O       4.740515     -0.056327      3.151133
  O       0.884072     -2.043927      1.218521
  O       3.171082     -2.475212      2.876639
  O       0.728670      5.885431     -1.184474
  O       1.711097      4.266207     -3.168511
  O      -0.327449      2.203229     -3.300716
  O      -2.035402     -2.189504     -0.900343
  O      -1.118158     -2.648704      3.047109
  O      -3.799476     -2.885266      3.515239
  O      -6.634325     -2.833566     -0.359491
  O       3.123440      0.318178     -2.456811
  O       2.649940     -0.943215     -4.847306
  C       1.242768      1.246408      2.630593
  C       2.776078      1.303995      2.695054
  C       3.320530     -0.044024      3.188073
  C       2.792782     -1.211704      2.348494
  C       1.201698      4.581484     -0.824290
  C       0.408970      4.057391      0.376617
  C       1.107934      3.641066     -2.040807
  C      -0.348585      3.239831     -2.321166
  C       1.266146     -1.101345      2.200447
  C       0.570778      2.528695      2.175997
  C      -1.044445      2.761557     -1.030000
  C      -2.529943      2.485339     -1.207087
  C      -0.445553     -2.107382      0.853930
  C      -0.754650     -1.993706     -0.471390
  C      -1.450193     -2.448059      1.867939
  C      -2.825956     -2.535815      1.360874
  C       0.166458     -1.737453     -1.590816
  C      -3.059981     -2.420186     -0.026502
  C      -3.971906     -2.771575      2.176212
  C      -4.319844     -2.517802     -0.610608
  C       1.258309     -0.856964     -1.459363
  C      -0.064411     -2.344715     -2.840674
  C      -5.240937     -2.871191      1.611815
  C      -5.413324     -2.745570      0.224128
  C       2.086505     -0.605530     -2.541495
  C       0.771364     -2.095903     -3.926157
  C       1.849608     -1.215327     -3.786929
  H       0.847015      1.024160      3.636550
  H       3.160780      1.503290      1.689650
  H       2.967667     -0.183345      4.227984
  H       3.237151     -1.159642      1.348328
  H       2.250793      4.715428     -0.546255
  H       0.320435      4.844654      1.136543
  H       1.682705      2.730250     -1.841374
  H      -0.889878      4.117206     -2.707763
  H       0.759126     -1.310605      3.150634
  H      -0.511553      2.365638      2.121117
  H       0.768306      3.313301      2.919337
  H      -0.536232      1.852218     -0.686056
  H      -2.975313      2.186490     -0.252394
  H      -2.683508      1.671383     -1.922778
  H      -3.052427      3.378262     -1.570936
  H       2.930447      2.243148      4.412542
  H       5.016354      0.795303      3.536111
  H       2.857524     -2.521307      3.797243
  H      -0.245034      5.854944     -1.198507
  H       1.413470      5.194721     -3.127690
  H      -1.198822      2.173880     -3.727120
  H      -4.440805     -2.415478     -1.682756
  H       1.451106     -0.346025     -0.524596
  H      -0.900729     -3.025457     -2.960466
  H      -6.103811     -3.043552      2.251839
  H       0.597324     -2.569579     -4.887684
  H      -4.666828     -3.037225      3.931552
  H      -7.316456     -2.983646      0.318496
  H       3.960780     -0.153799     -2.295491
  H       3.289485     -0.263420     -4.556914
73
Coordinates from ORCA-job Inputs/Rutin_CPCM E -2249.235389872675
  O       0.874962      0.173372      1.723696
  O       1.072006      2.913765      0.887281
  O      -0.912897      3.779124     -0.046725
  O       3.238449      2.364741      3.519548
  O       4.724454     -0.046607      3.175839
  O       0.888329     -2.057177      1.219879
  O       3.174854     -2.474167      2.883877
  O       0.783142      5.879821     -1.179183
  O       1.782168      4.267307     -3.160465
  O      -0.278729      2.231661     -3.347747
  O      -2.048516     -2.190887     -0.877614
  O      -1.095952     -2.685306      3.057054
  O      -3.770988     -2.961729      3.541879
  O      -6.639984     -2.846279     -0.306088
  O       3.053247      0.388218     -2.493507
  O       2.610923     -0.907386     -4.844691
  C       1.224447      1.234817      2.621765
  C       2.757003      1.301582      2.700508
  C       3.305190     -0.042354      3.200773
  C       2.790327     -1.212791      2.355442
  C       1.239413      4.568965     -0.823522
  C       0.421458      4.044574      0.360128
  C       1.154344      3.638641     -2.049126
  C      -0.302557      3.255095     -2.354935
  C       1.263864     -1.110102      2.198518
  C       0.548792      2.510092      2.155293
  C      -1.021330      2.769532     -1.079041
  C      -2.506002      2.505625     -1.281401
  C      -0.444070     -2.122985      0.863374
  C      -0.763742     -1.996224     -0.457403
  C      -1.439252     -2.478030      1.881917
  C      -2.817336     -2.569599      1.385675
  C       0.142771     -1.719354     -1.583806
  C      -3.065054     -2.432998      0.002199
  C      -3.956122     -2.822185      2.206938
  C      -4.329162     -2.521767     -0.573214
  C       1.221037     -0.821480     -1.458386
  C      -0.089160     -2.328751     -2.831735
  C      -5.229536     -2.915387      1.651867
  C      -5.414609     -2.765384      0.267951
  C       2.033778     -0.558672     -2.549124
  C       0.735101     -2.071261     -3.924474
  C       1.805941     -1.182211     -3.789924
  H       0.821685      1.014108      3.625062
  H       3.151658      1.502377      1.699604
  H       2.942940     -0.183240      4.237335
  H       3.240727     -1.155772      1.358339
  H       2.284402      4.688618     -0.524805
  H       0.328084      4.826867      1.124416
  H       1.718647      2.721408     -1.848467
  H      -0.827431      4.144836     -2.736720
  H       0.752821     -1.319766      3.146194
  H      -0.531127      2.336884      2.082477
  H       0.728563      3.297611      2.899500
  H      -0.522906      1.855650     -0.734144
  H      -2.968796      2.201273     -0.336880
  H      -2.654305      1.697645     -2.006146
  H      -3.013339      3.405814     -1.648274
  H       2.887735      2.240238      4.419945
  H       4.994263      0.803483      3.568525
  H       2.853972     -2.526245      3.801369
  H      -0.190578      5.856589     -1.202939
  H       1.492455      5.198346     -3.118528
  H      -1.143245      2.219281     -3.789296
  H      -4.460497     -2.404414     -1.642472
  H       1.410561     -0.304890     -0.525762
  H      -0.921807     -3.015130     -2.946674
  H      -6.085859     -3.102148      2.296725
  H       0.557345     -2.548961     -4.883278
  H      -4.633540     -3.123352      3.964280
  H      -7.316700     -3.013348      0.373192
  H       3.878523     -0.045110     -2.210496
  H       3.240449     -0.220611     -4.545774
73
Coordinates from ORCA-job Inputs/Rutin_CPCM E -2249.235998968803
  O       0.866768      0.168865      1.713679
  O       1.071613      2.906225      0.873785
  O      -0.891602      3.808130     -0.068158
  O       3.211646      2.368499      3.523775
  O       4.710365     -0.039266      3.186508
  O       0.888470     -2.060219      1.211498
  O       3.169274     -2.471169      2.884371
  O       0.847900      5.886301     -1.179588
  O       1.840038      4.262624     -3.158061
  O      -0.257875      2.270851     -3.374568
  O      -2.063264     -2.203872     -0.864076
  O      -1.077867     -2.714285      3.060319
  O      -3.746101     -3.029214      3.560787
  O      -6.644494     -2.896039     -0.264078
  O       3.013794      0.410099     -2.533941
  O       2.596123     -0.912495     -4.838105
  C       1.209260      1.231926      2.611334
  C       2.741272      1.303301      2.700675
  C       3.291296     -0.038846      3.204326
  C       2.784174     -1.210324      2.354979
  C       1.280171      4.566991     -0.825488
  C       0.443471      4.050571      0.348727
  C       1.190320      3.642044     -2.054793
  C      -0.270731      3.287437     -2.374948
  C       1.258386     -1.111745      2.190661
  C       0.533490      2.503702      2.135186
  C      -1.008669      2.806516     -1.108143
  C      -2.496073      2.569848     -1.324662
  C      -0.446475     -2.133710      0.865121
  C      -0.776827     -2.001000     -0.452047
  C      -1.431522     -2.503327      1.888629
  C      -2.811577     -2.607112      1.401675
  C       0.118067     -1.710078     -1.583940
  C      -3.071258     -2.459828      0.021285
  C      -3.942049     -2.878020      2.228737
  C      -4.338492     -2.552405     -0.545959
  C       1.187165     -0.799808     -1.464300
  C      -0.112927     -2.324933     -2.829140
  C      -5.218813     -2.975987      1.682149
  C      -5.415520     -2.812797      0.301269
  C       1.995212     -0.542129     -2.558739
  C       0.707154     -2.070599     -3.926233
  C       1.777078     -1.180696     -3.794147
  H       0.800762      1.013246      3.612740
  H       3.143020      1.505798      1.703061
  H       2.923843     -0.181552      4.238746
  H       3.240246     -1.151126      1.360592
  H       2.323821      4.666929     -0.515275
  H       0.357938      4.829430      1.117477
  H       1.737065      2.714672     -1.851577
  H      -0.774371      4.190312     -2.754639
  H       0.744273     -1.323076      3.136318
  H      -0.544681      2.325167      2.049014
  H       0.700414      3.292902      2.880536
  H      -0.527766      1.882791     -0.764391
  H      -2.971752      2.260210     -0.388335
  H      -2.652137      1.773995     -2.061510
  H      -2.983441      3.483691     -1.684624
  H       2.855305      2.241412      4.421529
  H       4.977197      0.808479      3.585973
  H       2.840646     -2.526537      3.798902
  H      -0.125973      5.879107     -1.205662
  H       1.564805      5.198095     -3.119370
  H      -1.115567      2.283364     -3.829023
  H      -4.479605     -2.426688     -1.612960
  H       1.371279     -0.273504     -0.535715
  H      -0.942326     -3.016158     -2.938494
  H      -6.068538     -3.176054      2.331622
  H       0.529427     -2.558578     -4.879766
  H      -4.603692     -3.204756      3.987673
  H      -7.314856     -3.078646      0.417428
  H       3.784357      0.041389     -2.066167
  H       3.235637     -0.244442     -4.514868
73
Coordinates from ORCA-job Inputs/Rutin_CPCM E -2249.236872702753
  O       0.854334      0.165031      1.699112
  O       1.064302      2.894969      0.857512
  O      -0.863478      3.853025     -0.093488
  O       3.152038      2.378412      3.552918
  O       4.685543     -0.016005      3.212431
  O       0.894225     -2.061580      1.193801
  O       3.175207     -2.458413      2.865246
  O       0.941554      5.886191     -1.188439
  O       1.918462      4.232481     -3.153313
  O      -0.237007      2.316697     -3.403081
  O      -2.082436     -2.201941     -0.847274
  O      -1.042638     -2.760906      3.056819
  O      -3.700349     -3.131785      3.581349
  O      -6.647194     -2.947819     -0.203029
  O       2.997496      0.400023     -2.585890
  O       2.587089     -0.954614     -4.841458
  C       1.178478      1.228986      2.600886
  C       2.708885      1.313563      2.713831
  C       3.266704     -0.027366      3.214488
  C       2.780093     -1.196004      2.348220
  C       1.335447      4.556367     -0.829267
  C       0.472751      4.059446      0.334776
  C       1.235860      3.632957     -2.058157
  C      -0.231164      3.324815     -2.395991
  C       1.254773     -1.110729      2.175287
  C       0.500469      2.493818      2.107333
  C      -0.995639      2.857824     -1.139273
  C      -2.486766      2.660585     -1.372135
  C      -0.444282     -2.141770      0.861789
  C      -0.792215     -1.993632     -0.448775
  C      -1.413449     -2.536958      1.892519
  C      -2.797091     -2.654782      1.420414
  C       0.084217     -1.685939     -1.590895
  C      -3.075838     -2.482654      0.046421
  C      -3.913890     -2.956397      2.255516
  C      -4.348502     -2.576720     -0.507193
  C       1.152191     -0.772644     -1.479899
  C      -0.154809     -2.305566     -2.831475
  C      -5.196573     -3.056679      1.722569
  C      -5.412070     -2.865897      0.347939
  C       1.961987     -0.537074     -2.577460
  C       0.662883     -2.066664     -3.934244
  C       1.745724     -1.192787     -3.807480
  H       0.757461      1.008817      3.596768
  H       3.125489      1.528205      1.725179
  H       2.888231     -0.182555      4.243067
  H       3.242730     -1.120700      1.357892
  H       2.377200      4.627076     -0.505056
  H       0.402521      4.835553      1.108134
  H       1.752686      2.690002     -1.847106
  H      -0.701881      4.246136     -2.773733
  H       0.738335     -1.328454      3.118571
  H      -0.573596      2.303936      1.997323
  H       0.642912      3.287000      2.853641
  H      -0.542168      1.921252     -0.792088
  H      -2.980078      2.353122     -0.444210
  H      -2.655163      1.875797     -2.118345
  H      -2.945579      3.590530     -1.728381
  H       2.786811      2.235257      4.444552
  H       4.943741      0.824524      3.631534
  H       2.836491     -2.530579      3.774959
  H      -0.032135      5.904966     -1.214197
  H       1.668855      5.175293     -3.124313
  H      -1.089042      2.357069     -3.865884
  H      -4.505579     -2.432045     -1.569503
  H       1.334092     -0.234156     -0.557448
  H      -0.987849     -2.993342     -2.932414
  H      -6.035693     -3.279298      2.378176
  H       0.477372     -2.567244     -4.879597
  H      -4.550678     -3.324786      4.015278
  H      -7.306382     -3.157793      0.481457
  H       3.651647      0.165517     -1.903099
  H       3.239624     -0.307069     -4.498516
73
Coordinates from ORCA-job Inputs/Rutin_CPCM E -2249.237568579829
  O       0.845127      0.165759      1.688141
  O       1.068361      2.885838      0.840455
  O      -0.823521      3.899891     -0.119229
  O       3.101993      2.385671      3.585108
  O       4.657398     -0.002205      3.253605
  O       0.897600     -2.059535      1.183304
  O       3.166263     -2.448981      2.869419
  O       1.048607      5.878224     -1.206966
  O       1.995728      4.187004     -3.158916
  O      -0.219698      2.348670     -3.426485
  O      -2.097389     -2.213037     -0.830832
  O      -1.012569     -2.802734      3.056108
  O      -3.659846     -3.223428      3.599855
  O      -6.644946     -3.023519     -0.153177
  O       2.958997      0.418349     -2.625750
  O       2.543151     -0.962205     -4.865507
  C       1.153097      1.231198      2.592988
  C       2.681423      1.321656      2.733025
  C       3.238888     -0.019036      3.236095
  C       2.769974     -1.185465      2.356568
  C       1.400613      4.538642     -0.841327
  C       0.514857      4.068180      0.316612
  C       1.283938      3.614367     -2.067827
  C      -0.189290      3.353818     -2.417494
  C       1.246520     -1.106984      2.167868
  C       0.479811      2.491508      2.080331
  C      -0.977195      2.909139     -1.167003
  C      -2.472074      2.756050     -1.410601
  C      -0.442833     -2.151862      0.862009
  C      -0.805353     -1.994488     -0.443654
  C      -1.397470     -2.571264      1.897716
  C      -2.783407     -2.705260      1.437315
  C       0.053669     -1.668862     -1.594078
  C      -3.077797     -2.517610      0.068681
  C      -3.887855     -3.033873      2.278640
  C      -4.354132     -2.619750     -0.474239
  C       1.119507     -0.751421     -1.490852
  C      -0.196791     -2.285223     -2.832835
  C      -5.174331     -3.143718      1.756277
  C      -5.405546     -2.935155      0.386740
  C       1.921267     -0.518515     -2.594673
  C       0.611846     -2.049861     -3.943199
  C       1.700796     -1.183073     -3.825970
  H       0.716394      1.012723      3.582422
  H       3.115015      1.543804      1.753780
  H       2.846493     -0.181405      4.258288
  H       3.243348     -1.101028      1.371981
  H       2.441067      4.578647     -0.507764
  H       0.462678      4.844612      1.091232
  H       1.768546      2.656118     -1.848944
  H      -0.626652      4.290776     -2.796868
  H       0.722289     -1.327001      3.106449
  H      -0.591013      2.296511      1.949355
  H       0.603677      3.289374      2.824997
  H      -0.554022      1.959643     -0.815920
  H      -2.980491      2.454988     -0.488750
  H      -2.657544      1.981980     -2.164279
  H      -2.900878      3.701787     -1.762605
  H       2.723464      2.233667      4.469725
  H       4.908118      0.831873      3.689361
  H       2.814612     -2.530701      3.773445
  H       0.075928      5.926038     -1.233989
  H       1.773299      5.136695     -3.140865
  H      -1.065383      2.418340     -3.897009
  H      -4.524099     -2.462446     -1.532749
  H       1.303107     -0.209681     -0.570376
  H      -1.030503     -2.973088     -2.926011
  H      -6.004061     -3.386332      2.416555
  H       0.416168     -2.556181     -4.883358
  H      -4.503818     -3.431093      4.039521
  H      -7.294071     -3.256221      0.533545
  H       3.470635      0.368626     -1.794185
  H       3.226010     -0.354025     -4.507631
73
Coordinates from ORCA-job Inputs/Rutin_CPCM E -2249.238291880658
  O       0.835626      0.180291      1.673753
  O       1.068448      2.880154      0.820500
  O      -0.780819      3.957266     -0.140732
  O       3.008914      2.400332      3.668497
  O       4.615458      0.031864      3.321061
  O       0.904527     -2.046174      1.166327
  O       3.180465     -2.419124      2.828950
  O       1.156855      5.842106     -1.273303
  O       2.048720      4.075314     -3.185296
  O      -0.238000      2.340792     -3.429057
  O      -2.115915     -2.164436     -0.815841
  O      -0.966236     -2.867513      3.035538
  O      -3.601777     -3.343835      3.601503
  O      -6.639028     -3.073349     -0.104380
  O       3.025326      0.330607     -2.620833
  O       2.515154     -0.966993     -4.896275
  C       1.110841      1.244166      2.591273
  C       2.634246      1.347902      2.780537
  C       3.197120      0.002087      3.268578
  C       2.764359     -1.149328      2.352373
  C       1.460573      4.499331     -0.878357
  C       0.562833      4.079567      0.289513
  C       1.311334      3.556290     -2.084110
  C      -0.170281      3.352368     -2.429930
  C       1.241837     -1.088675      2.153823
  C       0.446415      2.498853      2.049021
  C      -0.970109      2.953558     -1.170539
  C      -2.471023      2.841894     -1.405477
  C      -0.436683     -2.140626      0.853027
  C      -0.819144     -1.951348     -0.443176
  C      -1.371573     -2.605818      1.891199
  C      -2.762776     -2.747240      1.445356
  C       0.023065     -1.609567     -1.603378
  C      -3.075881     -2.516789      0.087922
  C      -3.849299     -3.120270      2.290519
  C      -4.357967     -2.623777     -0.439920
  C       1.131153     -0.743663     -1.494916
  C      -0.266451     -2.192321     -2.849132
  C      -5.141942     -3.233941      1.781009
  C      -5.393540     -2.984373      0.421797
  C       1.940832     -0.533736     -2.598617
  C       0.546186     -1.968455     -3.959949
  C       1.675157     -1.157381     -3.841136
  H       0.645126      1.019663      3.565815
  H       3.097684      1.597762      1.822103
  H       2.781841     -0.187697      4.276985
  H       3.241909     -1.028059      1.373441
  H       2.504050      4.510380     -0.551068
  H       0.544328      4.865812      1.056359
  H       1.751914      2.581160     -1.847424
  H      -0.574066      4.300761     -2.817670
  H       0.713362     -1.313221      3.089924
  H      -0.619157      2.298176      1.890235
  H       0.546259      3.306912      2.786733
  H      -0.582916      1.995397     -0.799266
  H      -2.983309      2.580223     -0.473462
  H      -2.683341      2.055003     -2.137621
  H      -2.877519      3.791682     -1.773665
  H       2.616180      2.210559      4.539834
  H       4.850263      0.850890      3.791647
  H       2.821270     -2.535910      3.726398
  H       0.186287      5.926698     -1.290210
  H       1.872777      5.034658     -3.186439
  H      -1.100536      2.407344     -3.867609
  H      -4.545122     -2.432577     -1.490106
  H       1.342912     -0.226333     -0.566598
  H      -1.125390     -2.846377     -2.947688
  H      -5.959304     -3.510753      2.442787
  H       0.319225     -2.448044     -4.907188
  H      -4.439652     -3.560737      4.048827
  H      -7.271954     -3.344295      0.583767
  H       3.446970      0.368021     -1.741534
  H       3.238613     -0.399202     -4.559430
73
Coordinates from ORCA-job Inputs/Rutin_CPCM E -2249.239260331443
  O       0.836086      0.198309      1.678636
  O       1.096711      2.891464      0.812634
  O      -0.738093      4.007487     -0.146279
  O       3.019377      2.406063      3.677731
  O       4.601587      0.022532      3.352282
  O       0.892029     -2.033851      1.183820
  O       3.147681     -2.416943      2.870390
  O       1.236156      5.825081     -1.313216
  O       2.059600      4.015070     -3.219319
  O      -0.277929      2.333764     -3.416353
  O      -2.115625     -2.197318     -0.815984
  O      -0.975403     -2.863161      3.042739
  O      -3.605380     -3.369926      3.600821
  O      -6.628362     -3.182121     -0.124015
  O       3.007769      0.331435     -2.616541
  O       2.449675     -0.891795     -4.922041
  C       1.115571      1.265797      2.593720
  C       2.637980      1.353610      2.792959
  C       3.183275      0.005270      3.290704
  C       2.745777     -1.147626      2.380176
  C       1.509082      4.478752     -0.909225
  C       0.613531      4.095933      0.272146
  C       1.320160      3.528749     -2.105205
  C      -0.170517      3.359543     -2.434140
  C       1.225319     -1.074396      2.169937
  C       0.471977      2.527914      2.045722
  C      -0.968266      3.000434     -1.162964
  C      -2.473298      2.933167     -1.382533
  C      -0.445177     -2.144730      0.859906
  C      -0.822499     -1.969371     -0.440645
  C      -1.378815     -2.614531      1.895374
  C      -2.766666     -2.773996      1.444430
  C       0.021511     -1.627276     -1.599792
  C      -3.075679     -2.559954      0.083779
  C      -3.851588     -3.157076      2.287171
  C      -4.353626     -2.693020     -0.449710
  C       1.134144     -0.765614     -1.491227
  C      -0.279771     -2.192102     -2.851685
  C      -5.138681     -3.298210      1.771590
  C      -5.387608     -3.064197      0.409131
  C       1.926159     -0.523879     -2.601730
  C       0.522851     -1.943757     -3.965128
  C       1.642465     -1.120812     -3.849043
  H       0.639817      1.050268      3.565376
  H       3.108832      1.594363      1.835625
  H       2.759756     -0.174970      4.297496
  H       3.230006     -1.038028      1.403181
  H       2.556855      4.467245     -0.595658
  H       0.621427      4.891942      1.028761
  H       1.734417      2.543829     -1.863352
  H      -0.555193      4.311691     -2.831925
  H       0.686714     -1.289496      3.102139
  H      -0.597665      2.346032      1.891336
  H       0.588677      3.338216      2.778252
  H      -0.608074      2.033892     -0.787625
  H      -2.982952      2.695176     -0.442812
  H      -2.715890      2.147695     -2.106240
  H      -2.857033      3.891216     -1.753540
  H       2.617564      2.228118      4.547662
  H       4.838715      0.841259      3.822840
  H       2.782778     -2.522414      3.766863
  H       0.267931      5.934143     -1.330345
  H       1.907218      4.978488     -3.227540
  H      -1.146297      2.413190     -3.841921
  H      -4.536942     -2.512955     -1.502595
  H       1.359654     -0.267709     -0.555653
  H      -1.137157     -2.847722     -2.953825
  H      -5.954919     -3.584794      2.430988
  H       0.290812     -2.403213     -4.921348
  H      -4.442108     -3.594556      4.046444
  H      -7.260120     -3.455706      0.564249
  H       3.381866      0.409299     -1.717727
  H       3.193524     -0.345309     -4.602529
73
Coordinates from ORCA-job Inputs/Rutin_CPCM E -2249.239873942736
  O       0.844139      0.216097      1.678756
  O       1.124220      2.904247      0.811187
  O      -0.699033      4.065006     -0.130832
  O       3.034610      2.407146      3.687985
  O       4.590550      0.012851      3.387712
  O       0.886168     -2.018657      1.194784
  O       3.111866     -2.417133      2.924292
  O       1.304111      5.820900     -1.329371
  O       2.048200      3.982241     -3.244363
  O      -0.336917      2.346330     -3.386294
  O      -2.100563     -2.255867     -0.828902
  O      -0.988843     -2.826472      3.049421
  O      -3.617817     -3.336201      3.599729
  O      -6.605196     -3.302460     -0.159494
  O       3.002464      0.307236     -2.627911
  O       2.387885     -0.888818     -4.975703
  C       1.125653      1.283992      2.594962
  C       2.646230      1.355783      2.805784
  C       3.172698      0.006505      3.315390
  C       2.730223     -1.149691      2.412022
  C       1.549303      4.469231     -0.926287
  C       0.661838      4.116119      0.269894
  C       1.314412      3.520322     -2.116711
  C      -0.185891      3.385003     -2.422054
  C       1.213150     -1.060938      2.181685
  C       0.501395      2.554183      2.048700
  C      -0.976174      3.062248     -1.138249
  C      -2.484146      3.046349     -1.339653
  C      -0.446494     -2.148804      0.858658
  C      -0.812967     -2.004949     -0.449784
  C      -1.384272     -2.606710      1.893482
  C      -2.766514     -2.787132      1.435349
  C       0.033983     -1.674798     -1.609519
  C      -3.065919     -2.613435      0.067159
  C      -3.855093     -3.162335      2.277603
  C      -4.336542     -2.780814     -0.475685
  C       1.142345     -0.806303     -1.511236
  C      -0.274629     -2.240153     -2.859466
  C      -5.133373     -3.337555      1.753765
  C      -5.372555     -3.145819      0.383185
  C       1.922075     -0.542803     -2.627604
  C       0.514634     -1.976423     -3.978284
  C       1.621332     -1.135321     -3.876331
  H       0.638439      1.075043      3.562496
  H       3.124937      1.586821      1.849642
  H       2.739674     -0.162791      4.320188
  H       3.227197     -1.057153      1.439729
  H       2.601402      4.432747     -0.630107
  H       0.699228      4.916374      1.020703
  H       1.705963      2.526435     -1.875450
  H      -0.553017      4.340657     -2.828339
  H       0.659476     -1.266602      3.106020
  H      -0.572897      2.392437      1.902182
  H       0.638477      3.362554      2.779517
  H      -0.641569      2.085187     -0.767053
  H      -2.989989      2.823378     -0.394374
  H      -2.761150      2.272453     -2.063508
  H      -2.839812      4.016808     -1.705649
  H       2.621412      2.244099      4.555458
  H       4.828035      0.833459      3.855704
  H       2.736499     -2.506083      3.818016
  H       0.338758      5.951509     -1.346171
  H       1.913303      4.948650     -3.254773
  H      -1.209849      2.443470     -3.799739
  H      -4.510289     -2.631595     -1.534947
  H       1.376884     -0.313753     -0.574546
  H      -1.125799     -2.904776     -2.956455
  H      -5.952081     -3.619214      2.412796
  H       0.282941     -2.431303     -4.936944
  H      -4.455577     -3.561179      4.042951
  H      -7.239906     -3.563741      0.530716
  H       3.262280      0.510377     -1.706277
  H       3.152182     -0.352565     -4.693959
73
Coordinates from ORCA-job Inputs/Rutin_CPCM E -2249.239591059751
  O       0.851065      0.230500      1.673777
  O       1.144588      2.928818      0.813014
  O      -0.691990      4.092144     -0.116119
  O       3.090825      2.401908      3.648237
  O       4.601321     -0.009203      3.362198
  O       0.863787     -2.011231      1.208798
  O       3.078064     -2.425634      2.955272
  O       1.295354      5.852696     -1.319932
  O       2.016992      4.036181     -3.256465
  O      -0.356479      2.363735     -3.367420
  O      -2.098282     -2.315339     -0.842223
  O      -1.026965     -2.790577      3.059344
  O      -3.660593     -3.268287      3.599640
  O      -6.601564     -3.395153     -0.194153
  O       3.008055      0.264141     -2.601501
  O       2.381902     -0.852271     -4.945222
  C       1.149227      1.297220      2.587872
  C       2.671955      1.350297      2.780975
  C       3.182530      0.000500      3.300381
  C       2.715886     -1.161779      2.418483
  C       1.547743      4.498503     -0.928585
  C       0.673643      4.139059      0.275556
  C       1.300667      3.558750     -2.124188
  C      -0.202330      3.412193     -2.412754
  C       1.199333     -1.052048      2.187885
  C       0.539202      2.580924      2.060811
  C      -0.980133      3.092453     -1.121185
  C      -2.488575      3.083427     -1.313183
  C      -0.464686     -2.155959      0.860999
  C      -0.816684     -2.044700     -0.454571
  C      -1.410458     -2.596598      1.894818
  C      -2.787903     -2.787117      1.427628
  C       0.043980     -1.730894     -1.607754
  C      -3.072362     -2.658646      0.051512
  C      -3.884373     -3.140673      2.269183
  C      -4.335650     -2.856777     -0.500109
  C       1.148508     -0.859595     -1.502257
  C      -0.257053     -2.291898     -2.864393
  C      -5.154298     -3.344025      1.737294
  C      -5.378093     -3.203354      0.358183
  C       1.928002     -0.575089     -2.615088
  C       0.532812     -2.002813     -3.976149
  C       1.624440     -1.143528     -3.858730
  H       0.666247      1.091604      3.558325
  H       3.140520      1.563685      1.814852
  H       2.756522     -0.149099      4.311344
  H       3.211925     -1.095807      1.443682
  H       2.603758      4.464341     -0.646994
  H       0.716147      4.939158      1.025913
  H       1.700719      2.565578     -1.895439
  H      -0.581033      4.361682     -2.823014
  H       0.641806     -1.242071      3.112361
  H      -0.541477      2.444693      1.936067
  H       0.710404      3.380477      2.793871
  H      -0.644965      2.112810     -0.757863
  H      -2.989070      2.869371     -0.363095
  H      -2.774343      2.308875     -2.032018
  H      -2.842328      4.053156     -1.682755
  H       2.682299      2.259714      4.521427
  H       4.849944      0.823797      3.802451
  H       2.707336     -2.489320      3.852928
  H       0.329561      5.976868     -1.345265
  H       1.878487      5.002659     -3.248813
  H      -1.237336      2.448664     -3.767751
  H      -4.496137     -2.742886     -1.565831
  H       1.385196     -0.376977     -0.560786
  H      -1.102392     -2.962447     -2.972078
  H      -5.978587     -3.611281      2.395782
  H       0.317326     -2.440330     -4.946665
  H      -4.501975     -3.482597      4.040693
  H      -7.243287     -3.631793      0.498262
  H       3.320318      0.370494     -1.692922
  H       3.128704     -0.289381     -4.670948
73
Coordinates from ORCA-job Inputs/Rutin_CPCM E -2249.240122672544
  O       0.838174      0.220470      1.665520
  O       1.135544      2.919351      0.800839
  O      -0.676486      4.095215     -0.151134
  O       3.048183      2.408063      3.656358
  O       4.579667      0.002582      3.379392
  O       0.862876     -2.021683      1.204072
  O       3.077475     -2.421831      2.948935
  O       1.339081      5.861770     -1.305008
  O       2.097454      4.058709     -3.237397
  O      -0.276427      2.404292     -3.417838
  O      -2.123248     -2.306489     -0.816441
  O      -0.999226     -2.847843      3.063338
  O      -3.621327     -3.366860      3.624234
  O      -6.611829     -3.416103     -0.131634
  O       2.971959      0.294185     -2.599874
  O       2.344900     -0.853323     -4.955185
  C       1.124062      1.289771      2.578754
  C       2.645622      1.353231      2.784538
  C       3.161534      0.005265      3.306753
  C       2.708856     -1.157751      2.417882
  C       1.579557      4.504077     -0.917634
  C       0.680386      4.136861      0.265822
  C       1.356123      3.574023     -2.124212
  C      -0.140466      3.437022     -2.444506
  C       1.192661     -1.057664      2.181924
  C       0.509988      2.567576      2.037720
  C      -0.944156      3.103539     -1.171050
  C      -2.449402      3.094362     -1.391397
  C      -0.468794     -2.167832      0.869201
  C      -0.838085     -2.035396     -0.439431
  C      -1.398914     -2.634612      1.907409
  C      -2.780266     -2.828730      1.453564
  C       0.005737     -1.700122     -1.599488
  C      -3.082954     -2.670782      0.084302
  C      -3.863136     -3.208256      2.301059
  C      -4.352050     -2.862302     -0.454959
  C       1.112718     -0.832410     -1.494433
  C      -0.305726     -2.251555     -2.856315
  C      -5.139798     -3.405665      1.781129
  C      -5.381911     -3.233341      0.408532
  C       1.890025     -0.551767     -2.609437
  C       0.478597     -1.966861     -3.972896
  C       1.582843     -1.122238     -3.860876
  H       0.635384      1.083541      3.546125
  H       3.122308      1.570378      1.823703
  H       2.728669     -0.148523      4.314055
  H       3.208934     -1.083959      1.445666
  H       2.629085      4.463672     -0.613246
  H       0.712285      4.929326      1.025065
  H       1.749230      2.577694     -1.896269
  H      -0.505952      4.394222     -2.848767
  H       0.634044     -1.249391      3.106203
  H      -0.566452      2.419525      1.892912
  H       0.658970      3.370557      2.772045
  H      -0.615963      2.121658     -0.806863
  H      -2.967995      2.873822     -0.452501
  H      -2.721424      2.323453     -2.119524
  H      -2.795908      4.066789     -1.761154
  H       2.635726      2.257515      4.526348
  H       4.822736      0.835291      3.822619
  H       2.700924     -2.494303      3.843623
  H       0.373874      5.989704     -1.340409
  H       1.967104      5.025970     -3.224701
  H      -1.149353      2.495262     -3.833238
  H      -4.528248     -2.725723     -1.515529
  H       1.351664     -0.352683     -0.552350
  H      -1.156281     -2.915735     -2.960711
  H      -5.953616     -3.692728      2.443902
  H       0.249486     -2.404574     -4.940039
  H      -4.455330     -3.596560      4.071626
  H      -7.242857     -3.676216      0.562221
  H       3.241267      0.475798     -1.682165
  H       3.103565     -0.308828     -4.673182
73
Coordinates from ORCA-job Inputs/Rutin_CPCM E -2249.240208591532
  O       0.834599      0.218447      1.661241
  O       1.136274      2.917770      0.793975
  O      -0.662900      4.109001     -0.160427
  O       3.035200      2.409662      3.658139
  O       4.567958      0.004452      3.391985
  O       0.860544     -2.023292      1.203108
  O       3.067464     -2.422077      2.958449
  O       1.368820      5.871837     -1.293262
  O       2.126462      4.077759     -3.233048
  O      -0.253394      2.436190     -3.435577
  O      -2.129560     -2.322561     -0.808409
  O      -0.992179     -2.855720      3.068676
  O      -3.611423     -3.385139      3.637287
  O      -6.608759     -3.461537     -0.111957
  O       2.960645      0.284492     -2.604638
  O       2.318927     -0.855598     -4.964850
  C       1.115243      1.289151      2.573705
  C       2.635935      1.353370      2.786564
  C       3.150162      0.006281      3.313029
  C       2.701829     -1.158466      2.424201
  C       1.599356      4.510356     -0.913085
  C       0.691868      4.141039      0.263441
  C       1.377461      3.589314     -2.126560
  C      -0.117801      3.462361     -2.455364
  C       1.186841     -1.058756      2.181403
  C       0.502810      2.565562      2.026759
  C      -0.930558      3.125538     -1.188157
  C      -2.434768      3.127075     -1.417049
  C      -0.471289     -2.174595      0.872527
  C      -0.845000     -2.043907     -0.435266
  C      -1.396284     -2.644742      1.913821
  C      -2.777869     -2.846403      1.463839
  C      -0.006657     -1.705254     -1.598322
  C      -3.084700     -2.691432      0.095108
  C      -3.856443     -3.231490      2.314283
  C      -4.353569     -2.891904     -0.441133
  C       1.101220     -0.838796     -1.495619
  C      -0.324330     -2.252759     -2.855194
  C      -5.133153     -3.437248      1.797395
  C      -5.378983     -3.269090      0.425041
  C       1.875017     -0.556569     -2.612981
  C       0.455555     -1.966563     -3.974196
  C       1.561658     -1.123631     -3.865737
  H       0.621801      1.084778      3.539086
  H       3.116507      1.569181      1.827441
  H       2.712929     -0.146197      4.318697
  H       3.206428     -1.086320      1.454179
  H       2.646994      4.462077     -0.603321
  H       0.724391      4.928973      1.027434
  H       1.764178      2.589398     -1.903284
  H      -0.475386      4.423893     -2.856287
  H       0.624354     -1.248108      3.104007
  H      -0.572509      2.416601      1.875048
  H       0.645748      3.369108      2.761835
  H      -0.609932      2.139379     -0.828434
  H      -2.960573      2.903307     -0.482949
  H      -2.707728      2.363217     -2.152383
  H      -2.772334      4.104456     -1.782091
  H       2.619613      2.259890      4.526821
  H       4.808267      0.840354      3.830728
  H       2.685712     -2.493602      3.851092
  H       0.404430      6.004920     -1.333467
  H       2.002656      5.045703     -3.212907
  H      -1.124732      2.532003     -3.852973
  H      -4.533076     -2.757984     -1.501499
  H       1.344422     -0.361926     -0.553306
  H      -1.175790     -2.916040     -2.957300
  H      -5.943776     -3.728402      2.462236
  H       0.221752     -2.401214     -4.941594
  H      -4.443202     -3.619692      4.086466
  H      -7.235911     -3.726205      0.583773
  H       3.204103      0.504195     -1.686946
  H       3.074131     -0.303973     -4.687651
73
Coordinates from ORCA-job Inputs/Rutin_CPCM E -2249.240324861667
  O       0.827675      0.213302      1.653684
  O       1.137116      2.915842      0.782203
  O      -0.641118      4.128115     -0.181288
  O       3.012690      2.412225      3.658868
  O       4.548041      0.009473      3.411016
  O       0.855664     -2.028763      1.202728
  O       3.053092     -2.422067      2.972699
  O       1.416230      5.892923     -1.267988
  O       2.184002      4.120219     -3.221308
  O      -0.199503      2.493391     -3.471969
  O      -2.142246     -2.353862     -0.791755
  O      -0.982035     -2.873444      3.080410
  O      -3.594713     -3.422112      3.662266
  O      -6.606782     -3.535432     -0.073189
  O       2.930119      0.275597     -2.613288
  O       2.268175     -0.844055     -4.972613
  C       1.099397      1.287232      2.563866
  C       2.618563      1.353423      2.787962
  C       3.130937      0.008232      3.321706
  C       2.690426     -1.159752      2.433172
  C       1.632923      4.525119     -0.901906
  C       0.708445      4.147845      0.258939
  C       1.420312      3.621035     -2.129497
  C      -0.071181      3.506755     -2.477649
  C       1.177194     -1.062133      2.180433
  C       0.489128      2.560807      2.006745
  C      -0.902031      3.159510     -1.224575
  C      -2.403395      3.175269     -1.472564
  C      -0.476834     -2.190950      0.880763
  C      -0.858382     -2.063622     -0.425330
  C      -1.393247     -2.666458      1.927290
  C      -2.775332     -2.879745      1.484257
  C      -0.029831     -1.717730     -1.593190
  C      -3.089782     -2.729305      0.116681
  C      -3.846363     -3.273781      2.340016
  C      -4.358870     -2.942456     -0.413800
  C       1.077942     -0.851028     -1.493666
  C      -0.357828     -2.257215     -2.851023
  C      -5.123486     -3.491946      1.828965
  C      -5.376547     -3.329111      0.457452
  C       1.841593     -0.561364     -2.616218
  C       0.411649     -1.962993     -3.974789
  C       1.517889     -1.119373     -3.870164
  H       0.598588      1.086560      3.526311
  H       3.104801      1.567240      1.831356
  H       2.686865     -0.142177      4.324780
  H       3.201828     -1.089567      1.466553
  H       2.676164      4.465791     -0.579471
  H       0.736601      4.927323      1.031762
  H       1.798807      2.616105     -1.914864
  H      -0.417142      4.475257     -2.871892
  H       0.609792     -1.246794      3.100963
  H      -0.583635      2.408490      1.841256
  H       0.619128      3.364921      2.743810
  H      -0.591942      2.166852     -0.873333
  H      -2.943740      2.943256     -0.548869
  H      -2.673340      2.423722     -2.221811
  H      -2.727159      4.160417     -1.829211
  H       2.591698      2.264495      4.525338
  H       4.782824      0.852208      3.839762
  H       2.663408     -2.492641      3.862072
  H       0.453149      6.031738     -1.320424
  H       2.068027      5.088690     -3.186765
  H      -1.066402      2.596260     -3.896562
  H      -4.544502     -2.812322     -1.473589
  H       1.329211     -0.380552     -0.550473
  H      -1.209469     -2.920635     -2.949546
  H      -5.928498     -3.789717      2.497660
  H       0.169726     -2.389753     -4.943720
  H      -4.422067     -3.665581      4.114985
  H      -7.227255     -3.807156      0.625887
  H       3.155658      0.529465     -1.700451
  H       3.004882     -0.265610     -4.700269
73
Coordinates from ORCA-job Inputs/Rutin_CPCM E -2249.240399603093
  O       0.817426      0.210737      1.643398
  O       1.140899      2.922302      0.771792
  O      -0.618735      4.146890     -0.208632
  O       2.994281      2.416012      3.650085
  O       4.526743      0.013474      3.423053
  O       0.843153     -2.032894      1.203855
  O       3.034565     -2.420840      2.984855
  O       1.457445      5.928478     -1.231072
  O       2.259320      4.187881     -3.197334
  O      -0.114895      2.560464     -3.514458
  O      -2.164154     -2.387544     -0.770612
  O      -0.975204     -2.892551      3.094843
  O      -3.577281     -3.473254      3.691918
  O      -6.609510     -3.623915     -0.025528
  O       2.891339      0.262452     -2.619036
  O       2.203591     -0.828431     -4.977082
  C       1.083870      1.288232      2.550464
  C       2.601803      1.354161      2.782134
  C       3.110317      0.010959      3.324637
  C       2.674509     -1.160602      2.438580
  C       1.667994      4.555134     -0.882009
  C       0.722638      4.161200      0.256181
  C       1.477710      3.670361     -2.126964
  C      -0.007138      3.559430     -2.503310
  C       1.162579     -1.062966      2.178285
  C       0.476830      2.559862      1.985694
  C      -0.860179      3.193511     -1.270485
  C      -2.356728      3.213660     -1.545766
  C      -0.490348     -2.206991      0.891611
  C      -0.881088     -2.083891     -0.412298
  C      -1.395311     -2.691309      1.943918
  C      -2.777366     -2.920753      1.509107
  C      -0.063415     -1.730855     -1.585668
  C      -3.101619     -2.774311      0.143372
  C      -3.838360     -3.327972      2.371136
  C      -4.371041     -3.002873     -0.379789
  C       1.046232     -0.865796     -1.489790
  C      -0.403146     -2.261005     -2.844620
  C      -5.115564     -3.561987      1.867376
  C      -5.378662     -3.402269      0.497412
  C       1.799322     -0.569239     -2.617238
  C       0.354831     -1.956994     -3.973578
  C       1.462535     -1.114809     -3.871996
  H       0.577459      1.091768      3.510862
  H       3.092107      1.563179      1.826382
  H       2.660156     -0.134927      4.325720
  H       3.190835     -1.094067      1.474333
  H       2.705201      4.491041     -0.541646
  H       0.736802      4.930536      1.039373
  H       1.853521      2.662572     -1.921774
  H      -0.346994      4.533235     -2.889920
  H       0.590994     -1.241055      3.097340
  H      -0.592616      2.402728      1.803769
  H       0.591517      3.362710      2.726623
  H      -0.556075      2.195873     -0.928247
  H      -2.914425      2.968518     -0.635899
  H      -2.613527      2.473504     -2.310845
  H      -2.672691      4.204377     -1.893831
  H       2.568363      2.273404      4.515029
  H       4.757662      0.863224      3.840218
  H       2.639240     -2.488822      3.871911
  H       0.495498      6.066782     -1.302558
  H       2.144869      5.155872     -3.145906
  H      -0.975887      2.664781     -3.950669
  H      -4.564518     -2.875216     -1.438473
  H       1.307467     -0.403003     -0.545756
  H      -1.256211     -2.922953     -2.940054
  H      -5.912900     -3.869914      2.540662
  H       0.102842     -2.373388     -4.944474
  H      -4.398874     -3.726703      4.149591
  H      -7.222010     -3.903705      0.677391
  H       3.110402      0.534528     -1.711266
  H       2.927306     -0.232130     -4.708728
73
Coordinates from ORCA-job Inputs/Rutin_CPCM E -2249.240408001645
  O       0.808816      0.212003      1.636085
  O       1.147954      2.929691      0.766037
  O      -0.596154      4.163037     -0.231355
  O       2.974050      2.419217      3.653744
  O       4.507290      0.018147      3.438835
  O       0.833666     -2.033924      1.204369
  O       3.019870     -2.417410      2.992323
  O       1.495023      5.950175     -1.211179
  O       2.320698      4.225855     -3.181110
  O      -0.046903      2.598004     -3.540339
  O      -2.181025     -2.413156     -0.755051
  O      -0.968528     -2.908570      3.104082
  O      -3.560880     -3.517281      3.713463
  O      -6.610678     -3.692962      0.011691
  O       2.851168      0.265463     -2.628284
  O       2.140788     -0.800795     -4.986247
  C       1.070349      1.291917      2.542033
  C       2.586540      1.356972      2.784006
  C       3.091441      0.014292      3.330930
  C       2.661163     -1.157980      2.443250
  C       1.699770      4.573881     -0.870328
  C       0.738638      4.172504      0.252021
  C       1.525494      3.699650     -2.124984
  C       0.045781      3.591087     -2.521926
  C       1.150411     -1.060873      2.176449
  C       0.468920      2.563243      1.970600
  C      -0.824192      3.217833     -1.303293
  C      -2.316877      3.242943     -1.598388
  C      -0.500011     -2.219507      0.898395
  C      -0.898268     -2.100307     -0.403747
  C      -1.395667     -2.711483      1.955063
  C      -2.777576     -2.954423      1.526949
  C      -0.090311     -1.739612     -1.581451
  C      -3.110129     -2.809792      0.163139
  C      -3.829810     -3.373222      2.394007
  C      -4.380070     -3.049990     -0.353711
  C       1.018256     -0.872128     -1.489829
  C      -0.439155     -2.262779     -2.840909
  C      -5.107043     -3.619496      1.896452
  C      -5.379096     -3.460267      0.528227
  C       1.759526     -0.565738     -2.622077
  C       0.306992     -1.947673     -3.975001
  C       1.411805     -1.101570     -3.877455
  H       0.556915      1.098543      3.499353
  H       3.082938      1.565193      1.831231
  H       2.635310     -0.130862      4.329376
  H       3.182033     -1.091573      1.481444
  H       2.732266      4.506344     -0.516698
  H       0.742881      4.936779      1.040218
  H       1.898526      2.690069     -1.923539
  H      -0.288936      4.566983     -2.907827
  H       0.575419     -1.235099      3.093993
  H      -0.597646      2.403540      1.774233
  H       0.571587      3.365356      2.713998
  H      -0.526660      2.217093     -0.964364
  H      -2.887150      2.990688     -0.698299
  H      -2.564978      2.510213     -2.373348
  H      -2.626510      4.237352     -1.941535
  H       2.540859      2.278952      4.515429
  H       4.734193      0.870759      3.852442
  H       2.619397     -2.485838      3.877004
  H       0.534373      6.089816     -1.296246
  H       2.206361      5.193484     -3.122815
  H      -0.901590      2.704017     -3.988342
  H      -4.580319     -2.923020     -1.411226
  H       1.287164     -0.415461     -0.545121
  H      -1.290765     -2.926951     -2.933131
  H      -5.897809     -3.936191      2.573416
  H       0.046737     -2.357149     -4.946650
  H      -4.377703     -3.779291      4.174872
  H      -7.216507     -3.979336      0.717756
  H       3.067014      0.547454     -1.723617
  H       2.856263     -0.192936     -4.721896
73
Coordinates from ORCA-job Inputs/Rutin_CPCM E -2249.240433670520
  O       0.808483      0.215261      1.635122
  O       1.151492      2.933316      0.767085
  O      -0.592842      4.165410     -0.231824
  O       2.966899      2.419329      3.663897
  O       4.503092      0.019392      3.447520
  O       0.834210     -2.030132      1.201306
  O       3.018630     -2.415563      2.990308
  O       1.497675      5.951086     -1.214384
  O       2.324002      4.221969     -3.182213
  O      -0.043943      2.593117     -3.537154
  O      -2.181726     -2.413422     -0.754932
  O      -0.965697     -2.906576      3.102756
  O      -3.556101     -3.520524      3.714344
  O      -6.609338     -3.699093      0.015369
  O       2.854696      0.256240     -2.634545
  O       2.132247     -0.795997     -4.991364
  C       1.068656      1.294649      2.542426
  C       2.583806      1.358758      2.790214
  C       3.087444      0.015093      3.335638
  C       2.660007     -1.155040      2.443727
  C       1.702917      4.575440     -0.871692
  C       0.741947      4.175454      0.251331
  C       1.528427      3.698868     -2.124862
  C       0.048647      3.589481     -2.521875
  C       1.149721     -1.057978      2.174722
  C       0.469429      2.566296      1.969563
  C      -0.821888      3.219552     -1.302908
  C      -2.314564      3.246828     -1.597765
  C      -0.499361     -2.218009      0.896530
  C      -0.898878     -2.099802     -0.405401
  C      -1.393676     -2.710558      1.953867
  C      -2.775638     -2.955811      1.526989
  C      -0.092578     -1.738295     -1.583764
  C      -3.109683     -2.811646      0.163579
  C      -3.826304     -3.376327      2.395011
  C      -4.379759     -3.053737     -0.352188
  C       1.020131     -0.875315     -1.493324
  C      -0.446259     -2.256971     -2.843731
  C      -5.103473     -3.624498      1.898561
  C      -5.377386     -3.465192      0.530767
  C       1.759295     -0.569569     -2.626720
  C       0.297938     -1.941849     -3.979461
  C       1.405542     -1.099899     -3.882544
  H       0.551952      1.101509      3.498051
  H       3.084086      1.569434      1.840041
  H       2.628764     -0.133050      4.332421
  H       3.182842     -1.085550      1.483202
  H       2.735501      4.508647     -0.518164
  H       0.746016      4.940787      1.038522
  H       1.900959      2.689593     -1.921237
  H      -0.285986      4.564102     -2.911028
  H       0.573473     -1.233490      3.091170
  H      -0.596455      2.405732      1.769970
  H       0.569164      3.368373      2.713345
  H      -0.526242      2.218460     -0.963267
  H      -2.884782      2.991596     -0.698475
  H      -2.563380      2.517209     -2.375479
  H      -2.623808      4.242645     -1.937074
  H       2.529060      2.278175      4.523060
  H       4.727971      0.869273      3.867785
  H       2.616261     -2.486782      3.873870
  H       0.536987      6.091310     -1.298022
  H       2.207644      5.189577     -3.128925
  H      -0.897442      2.699068     -3.987390
  H      -4.581221     -2.926949     -1.409500
  H       1.293636     -0.422053     -0.548342
  H      -1.299837     -2.918682     -2.935356
  H      -5.893217     -3.942277      2.576214
  H       0.032890     -2.348710     -4.950905
  H      -4.371908     -3.785800      4.175740
  H      -7.214168     -3.985848      0.722162
  H       3.077456      0.529240     -1.729048
  H       2.853248     -0.195374     -4.725724
73
Coordinates from ORCA-job Inputs/Rutin_CPCM E -2249.240452154659
  O       0.807392      0.222754      1.631902
  O       1.157776      2.940062      0.769541
  O      -0.582062      4.175626     -0.234886
  O       2.946785      2.421817      3.686847
  O       4.491849      0.024824      3.466989
  O       0.834406     -2.023142      1.197666
  O       3.016764     -2.409025      2.986253
  O       1.514215      5.949074     -1.222253
  O       2.338914      4.206217     -3.182195
  O      -0.037142      2.587515     -3.532805
  O      -2.184622     -2.414286     -0.753229
  O      -0.957808     -2.908986      3.099833
  O      -3.543427     -3.537327      3.716616
  O      -6.605596     -3.718828      0.025100
  O       2.851521      0.248760     -2.649965
  O       2.107607     -0.788923     -5.006726
  C       1.062358      1.300739      2.543054
  C       2.575125      1.364754      2.803975
  C       3.076948      0.019268      3.346291
  C       2.656586     -1.146685      2.445378
  C       1.715587      4.574411     -0.874080
  C       0.752194      4.181794      0.249552
  C       1.538952      3.692885     -2.123642
  C       0.059047      3.588455     -2.522335
  C       1.147051     -1.050576      2.171765
  C       0.468196      2.573579      1.967698
  C      -0.814708      3.227700     -1.303465
  C      -2.306763      3.262264     -1.600038
  C      -0.498769     -2.215637      0.893633
  C      -0.901359     -2.097959     -0.407439
  C      -1.389046     -2.713214      1.952073
  C      -2.770721     -2.964317      1.528271
  C      -0.099985     -1.734034     -1.588304
  C      -3.108948     -2.818627      0.166193
  C      -3.817466     -3.390879      2.398169
  C      -4.379380     -3.064816     -0.346997
  C       1.018493     -0.877127     -1.502082
  C      -0.462968     -2.246634     -2.847882
  C      -5.094664     -3.643165      1.904374
  C      -5.373157     -3.481589      0.537801
  C       1.752270     -0.571513     -2.638738
  C       0.276059     -1.931584     -3.987499
  C       1.387718     -1.095483     -3.894710
  H       0.538077      1.106214      3.494295
  H       3.084222      1.581323      1.859903
  H       2.612295     -0.135143      4.339273
  H       3.182841     -1.070239      1.487237
  H       2.747661      4.505758     -0.519425
  H       0.758095      4.949381      1.034598
  H       1.906124      2.682651     -1.914822
  H      -0.271072      4.562616     -2.916372
  H       0.568143     -1.227647      3.086184
  H      -0.596483      2.413091      1.761500
  H       0.564060      3.375467      2.712081
  H      -0.525142      2.225948     -0.960623
  H      -2.878923      3.006633     -0.702073
  H      -2.557400      2.535996     -2.380239
  H      -2.611789      4.260152     -1.936907
  H       2.499374      2.276590      4.540316
  H       4.712742      0.868018      3.902424
  H       2.610966     -2.486877      3.867626
  H       0.553920      6.092335     -1.305132
  H       2.222753      5.174263     -3.139388
  H      -0.887621      2.697625     -3.987757
  H      -4.584039     -2.936661     -1.403527
  H       1.300236     -0.428639     -0.557254
  H      -1.319927     -2.904220     -2.937256
  H      -5.881419     -3.965577      2.583341
  H       0.001390     -2.335179     -4.957607
  H      -4.357201     -3.806782      4.179205
  H      -7.207831     -4.008333      0.732990
  H       3.085480      0.509707     -1.743654
  H       2.840949     -0.202717     -4.743041
73
Coordinates from ORCA-job Inputs/Rutin_CPCM E -2249.240472654876
  O       0.806066      0.225519      1.626329
  O       1.160415      2.943129      0.767649
  O      -0.572254      4.184130     -0.242708
  O       2.928677      2.424461      3.698847
  O       4.479734      0.028639      3.483212
  O       0.833624     -2.020855      1.195250
  O       3.010032     -2.405567      2.990357
  O       1.531174      5.954038     -1.218200
  O       2.363669      4.210381     -3.175770
  O      -0.015824      2.599991     -3.540675
  O      -2.189807     -2.420935     -0.747506
  O      -0.948104     -2.918405      3.099933
  O      -3.529305     -3.557823      3.724554
  O      -6.602570     -3.745762      0.042701
  O       2.839861      0.245413     -2.663516
  O       2.078656     -0.781609     -5.018627
  C       1.054768      1.303097      2.539695
  C       2.565539      1.368102      2.811539
  C       3.065555      0.022264      3.354815
  C       2.651115     -1.142855      2.449771
  C       1.729055      4.578700     -0.870831
  C       0.759693      4.186401      0.247775
  C       1.556613      3.698730     -2.121993
  C       0.078495      3.599226     -2.528315
  C       1.142803     -1.047093      2.169178
  C       0.463582      2.575909      1.961312
  C      -0.802507      3.239055     -1.314446
  C      -2.292890      3.279103     -1.618591
  C      -0.499289     -2.218400      0.893618
  C      -0.906281     -2.100439     -0.406137
  C      -1.384060     -2.722043      1.953988
  C      -2.766037     -2.977803      1.534657
  C      -0.111041     -1.732923     -1.590048
  C      -3.109501     -2.830773      0.174056
  C      -3.808229     -3.410077      2.407292
  C      -4.380480     -3.081429     -0.335546
  C       1.010907     -0.879840     -1.507784
  C      -0.482994     -2.239374     -2.849490
  C      -5.085989     -3.666582      1.917183
  C      -5.369610     -3.503909      0.551806
  C       1.738299     -0.572326     -2.647910
  C       0.249764     -1.922625     -3.992725
  C       1.364571     -1.090522     -3.903818
  H       0.524064      1.107707      3.487215
  H       3.081727      1.586855      1.871886
  H       2.595490     -0.134365      4.344882
  H       3.181893     -1.064390      1.494280
  H       2.759332      4.507834     -0.511415
  H       0.763740      4.952609      1.034221
  H       1.919665      2.687126     -1.912296
  H      -0.246792      4.574949     -2.922424
  H       0.559939     -1.223099      3.081301
  H      -0.599740      2.414952      1.748621
  H       0.554865      3.377471      2.706615
  H      -0.517771      2.235724     -0.972154
  H      -2.870649      3.020881     -0.724977
  H      -2.541118      2.557240     -2.403664
  H      -2.593099      4.279332     -1.952796
  H       2.473895      2.277836      4.548142
  H       4.697561      0.868858      3.925813
  H       2.599313     -2.485743      3.869231
  H       0.571352      6.098789     -1.303852
  H       2.248149      5.178543     -3.135195
  H      -0.861808      2.715801     -4.002496
  H      -4.589114     -2.952309     -1.391176
  H       1.300431     -0.436034     -0.563168
  H      -1.342458     -2.893952     -2.936556
  H      -5.869167     -3.993546      2.598104
  H      -0.033229     -2.322506     -4.961961
  H      -4.340565     -3.831245      4.189261
  H      -7.201510     -4.038541      0.752056
  H       3.085008      0.496509     -1.757192
  H       2.820405     -0.205701     -4.755590
73
Coordinates from ORCA-job Inputs/Rutin_CPCM E -2249.240479464034
  O       0.806431      0.228602      1.617683
  O       1.163663      2.944318      0.763131
  O      -0.556188      4.198385     -0.252731
  O       2.900225      2.427847      3.719362
  O       4.460918      0.034370      3.510715
  O       0.835116     -2.018978      1.191385
  O       2.999738     -2.401071      3.000336
  O       1.560820      5.956401     -1.216068
  O       2.394343      4.209976     -3.171722
  O       0.005424      2.615529     -3.550591
  O      -2.194162     -2.432825     -0.740826
  O      -0.931543     -2.936893      3.098307
  O      -3.508401     -3.584240      3.734885
  O      -6.596778     -3.780290      0.066431
  O       2.818930      0.248703     -2.683772
  O       2.038392     -0.769575     -5.036627
  C       1.043124      1.305460      2.534868
  C       2.550493      1.372787      2.825009
  C       3.047943      0.026432      3.369894
  C       2.643542     -1.137967      2.458975
  C       1.750103      4.579530     -0.869709
  C       0.773397      4.191058      0.243881
  C       1.578693      3.702100     -2.122755
  C       0.102072      3.612919     -2.536569
  C       1.137609     -1.043156      2.165474
  C       0.456831      2.578303      1.951392
  C      -0.787657      3.257028     -1.327489
  C      -2.276064      3.308620     -1.639679
  C      -0.497164     -2.224785      0.892587
  C      -0.910277     -2.106639     -0.405283
  C      -1.374401     -2.737494      1.955474
  C      -2.757288     -2.997475      1.542598
  C      -0.123994     -1.733319     -1.593488
  C      -3.107709     -2.848675      0.183989
  C      -3.793662     -3.435877      2.419136
  C      -4.379806     -3.103902     -0.320425
  C       0.999409     -0.881726     -1.516903
  C      -0.506671     -2.233504     -2.852387
  C      -5.072589     -3.696785      1.934311
  C      -5.362888     -3.533095      0.570474
  C       1.717118     -0.569116     -2.662032
  C       0.216631     -1.912604     -4.000249
  C       1.332997     -1.081882     -3.917169
  H       0.501605      1.108258      3.475944
  H       3.077897      1.595444      1.892647
  H       2.569342     -0.133381      4.355321
  H       3.182446     -1.057059      1.508242
  H       2.778324      4.502624     -0.505670
  H       0.778699      4.955604      1.031966
  H       1.934437      2.687896     -1.912775
  H      -0.214474      4.591309     -2.931028
  H       0.547703     -1.216880      3.073492
  H      -0.604924      2.418495      1.730445
  H       0.543345      3.379859      2.697295
  H      -0.511625      2.251125     -0.985578
  H      -2.861194      3.052314     -0.750366
  H      -2.524784      2.590982     -2.428474
  H      -2.566313      4.311957     -1.973414
  H       2.434659      2.278184      4.562234
  H       4.673875      0.871321      3.961659
  H       2.580028     -2.484435      3.874660
  H       0.601894      6.105859     -1.303689
  H       2.283041      5.178639     -3.132352
  H      -0.834028      2.742544     -4.021182
  H      -4.593804     -2.973465     -1.374819
  H       1.298257     -0.443161     -0.572814
  H      -1.367340     -2.886858     -2.935904
  H      -5.851215     -4.028584      2.618081
  H      -0.075168     -2.308691     -4.968418
  H      -4.316548     -3.861385      4.202847
  H      -7.191367     -4.077054      0.777808
  H       3.079647      0.486572     -1.777990
  H       2.786565     -0.200632     -4.776389
73
Coordinates from ORCA-job Inputs/Rutin_CPCM E -2249.240496973033
  O       0.804452      0.230506      1.610052
  O       1.165401      2.947147      0.757827
  O      -0.542442      4.213977     -0.262471
  O       2.883581      2.431799      3.724156
  O       4.445773      0.037766      3.525926
  O       0.832258     -2.018295      1.189642
  O       2.987042     -2.398236      3.011500
  O       1.586779      5.966285     -1.205757
  O       2.424833      4.225885     -3.164023
  O       0.031165      2.642220     -3.563670
  O      -2.200927     -2.448719     -0.733495
  O      -0.920716     -2.952896      3.099438
  O      -3.493269     -3.610014      3.745934
  O      -6.593073     -3.820738      0.088071
  O       2.800817      0.244005     -2.695358
  O       2.005697     -0.768481     -5.047759
  C       1.033701      1.307760      2.528457
  C       2.539157      1.375872      2.828734
  C       3.033604      0.029973      3.377662
  C       2.634164     -1.135855      2.466232
  C       1.768881      4.587074     -0.864343
  C       0.784273      4.197987      0.241913
  C       1.601142      3.716037     -2.122260
  C       0.126633      3.635021     -2.545029
  C       1.130102     -1.040615      2.163042
  C       0.451088      2.580695      1.941645
  C      -0.772099      3.278331     -1.342587
  C      -2.258136      3.338976     -1.664281
  C      -0.499582     -2.231637      0.893946
  C      -0.917613     -2.114907     -0.402525
  C      -1.369659     -2.752558      1.959135
  C      -2.752889     -3.018084      1.551553
  C      -0.138480     -1.737639     -1.594320
  C      -3.108909     -2.869824      0.194323
  C      -3.783995     -3.462317      2.431399
  C      -4.381381     -3.131307     -0.305852
  C       0.986254     -0.887855     -1.521816
  C      -0.529246     -2.233413     -2.852755
  C      -5.063297     -3.729451      1.950879
  C      -5.358982     -3.566692      0.588072
  C       1.698050     -0.572608     -2.670196
  C       0.187630     -1.909793     -4.003500
  C       1.306274     -1.081278     -3.924505
  H       0.485751      1.110401      3.465807
  H       3.072537      1.597765      1.899556
  H       2.549540     -0.128706      4.360645
  H       3.178806     -1.056496      1.518652
  H       2.794724      4.504577     -0.494860
  H       0.788719      4.959051      1.033352
  H       1.951751      2.699491     -1.915050
  H      -0.183043      4.616504     -2.937218
  H       0.534583     -1.210662      3.068054
  H      -0.609514      2.422309      1.714317
  H       0.533960      3.381503      2.688767
  H      -0.502854      2.269730     -1.003292
  H      -2.850896      3.084550     -0.779529
  H      -2.505621      2.624455     -2.456275
  H      -2.539782      4.344707     -1.998272
  H       2.412774      2.282836      4.564244
  H       4.656756      0.875028      3.977203
  H       2.560898     -2.481175      3.882729
  H       0.628757      6.119064     -1.297853
  H       2.317932      5.194849     -3.119229
  H      -0.803575      2.777081     -4.040439
  H      -4.599704     -3.001188     -1.359396
  H       1.292049     -0.452810     -0.578407
  H      -1.391262     -2.885254     -2.933588
  H      -5.837708     -4.065892      2.637133
  H      -0.109666     -2.302159     -4.971523
  H      -4.298389     -3.890943      4.216865
  H      -7.183712     -4.121304      0.801133
  H       3.070564      0.475035     -1.790292
  H       2.757266     -0.202551     -4.790669
73
Coordinates from ORCA-job Inputs/Rutin_CPCM E -2249.240495822354
  O       0.803440      0.230111      1.606969
  O       1.165564      2.946548      0.754547
  O      -0.534558      4.221966     -0.267722
  O       2.872973      2.433448      3.728559
  O       4.437080      0.040751      3.536039
  O       0.832660     -2.019148      1.188447
  O       2.981897     -2.396733      3.018237
  O       1.602975      5.969524     -1.200061
  O       2.440315      4.233173     -3.160982
  O       0.043538      2.655604     -3.570665
  O      -2.202369     -2.459495     -0.729864
  O      -0.913695     -2.963160      3.100038
  O      -3.485050     -3.621893      3.751936
  O      -6.590947     -3.837636      0.099554
  O       2.786659      0.247202     -2.703715
  O       1.986135     -0.765523     -5.054917
  C       1.027646      1.308026      2.525726
  C       2.531890      1.377218      2.832277
  C       3.025371      0.031774      3.383170
  C       2.629905     -1.134877      2.471073
  C       1.779704      4.588749     -0.861810
  C       0.790716      4.200055      0.240581
  C       1.612780      3.721923     -2.122746
  C       0.139242      3.646175     -2.549839
  C       1.127004     -1.040800      2.162214
  C       0.446867      2.580357      1.935841
  C      -0.764337      3.289903     -1.350796
  C      -2.249180      3.356987     -1.676906
  C      -0.498889     -2.237419      0.894654
  C      -0.919424     -2.122141     -0.401214
  C      -1.365570     -2.761978      1.961086
  C      -2.749308     -3.029361      1.556185
  C      -0.144197     -1.742436     -1.594896
  C      -3.107958     -2.881647      0.199612
  C      -3.778126     -3.475165      2.437828
  C      -4.380960     -3.144953     -0.298244
  C       0.978717     -0.890307     -1.525175
  C      -0.537982     -2.238079     -2.852645
  C      -5.057936     -3.744070      1.959663
  C      -5.356275     -3.581874      0.597380
  C       1.686023     -0.571983     -2.675757
  C       0.174317     -1.911587     -4.005159
  C       1.291260     -1.080242     -3.929103
  H       0.475823      1.111043      3.460911
  H       3.068393      1.599447      1.905010
  H       2.538279     -0.126875      4.364672
  H       3.178005     -1.055503      1.525473
  H       2.804280      4.502065     -0.489755
  H       0.795365      4.959257      1.033784
  H       1.960383      2.703898     -1.917732
  H      -0.166150      4.629327     -2.941125
  H       0.528362     -1.209355      3.065395
  H      -0.612905      2.422136      1.704551
  H       0.526598      3.381352      2.683139
  H      -0.499740      2.279466     -1.013312
  H      -2.845816      3.104804     -0.794122
  H      -2.497476      2.644023     -2.470039
  H      -2.525285      4.364205     -2.011096
  H       2.399615      2.284454      4.567219
  H       4.645939      0.879332      3.985886
  H       2.551416     -2.480404      3.887257
  H       0.645609      6.125371     -1.294167
  H       2.336652      5.202315     -3.111699
  H      -0.787867      2.796086     -4.051552
  H      -4.601384     -3.015134     -1.351391
  H       1.287051     -0.455649     -0.582423
  H      -1.398607     -2.891992     -2.931111
  H      -5.830670     -4.081285      2.647391
  H      -0.124188     -2.303262     -4.973110
  H      -4.288844     -3.904426      4.224223
  H      -7.179792     -4.139491      0.813561
  H       3.060698      0.475220     -1.799112
  H       2.734044     -0.193507     -4.800525
73
Coordinates from ORCA-job Inputs/Rutin_CPCM E -2249.240499674879
  O       0.801142      0.230183      1.605782
  O       1.165330      2.947412      0.753021
  O      -0.530579      4.227690     -0.270498
  O       2.870324      2.434568      3.726738
  O       4.433619      0.042222      3.536965
  O       0.830948     -2.019406      1.188322
  O       2.979328     -2.395695      3.019613
  O       1.612123      5.972605     -1.196004
  O       2.448803      4.238992     -3.158572
  O       0.050561      2.664844     -3.574491
  O      -2.204502     -2.465979     -0.727851
  O      -0.912306     -2.967025      3.101179
  O      -3.482242     -3.629525      3.755059
  O      -6.590855     -3.849140      0.105092
  O       2.780538      0.246734     -2.704058
  O       1.979048     -0.766653     -5.055747
  C       1.024761      1.308725      2.524023
  C       2.528936      1.377915      2.831141
  C       3.021977      0.032877      3.383165
  C       2.627132     -1.134270      2.471582
  C       1.785456      4.590872     -0.859725
  C       0.793786      4.202373      0.240262
  C       1.618989      3.726736     -2.122558
  C       0.146022      3.653968     -2.552229
  C       1.124428     -1.040703      2.161826
  C       0.444826      2.580953      1.933117
  C      -0.760213      3.297654     -1.355304
  C      -2.244365      3.367968     -1.683843
  C      -0.500489     -2.240261      0.895577
  C      -0.921996     -2.126263     -0.400090
  C      -1.365379     -2.766493      1.962635
  C      -2.749035     -3.036137      1.558694
  C      -0.148069     -1.745471     -1.594282
  C      -3.108852     -2.889074      0.202387
  C      -3.776544     -3.483223      2.441148
  C      -4.381944     -3.154120     -0.294401
  C       0.974112     -0.892409     -1.525134
  C      -0.542362     -2.241296     -2.851878
  C      -5.056356     -3.753890      1.964033
  C      -5.356047     -3.592061      0.602000
  C       1.680637     -0.573263     -2.676032
  C       0.168937     -1.913742     -4.004632
  C       1.285332     -1.081512     -3.929144
  H       0.472365      1.112397      3.458992
  H       3.065446      1.599417      1.903679
  H       2.534366     -0.125036      4.364531
  H       3.175733     -1.055180      1.526246
  H       2.809250      4.501595     -0.486142
  H       0.798393      4.960432      1.034542
  H       1.964742      2.707801     -1.918994
  H      -0.157169      4.638091     -2.942782
  H       0.525150     -1.208612      3.064675
  H      -0.614600      2.422746      1.700111
  H       0.523159      3.381905      2.680594
  H      -0.498220      2.286164     -1.018936
  H      -2.842753      3.117142     -0.801832
  H      -2.493084      2.655489     -2.477230
  H      -2.518067      4.375821     -2.018098
  H       2.397210      2.286205      4.565652
  H       4.641988      0.882285      3.984324
  H       2.547712     -2.479533      3.888046
  H       0.655267      6.130554     -1.291863
  H       2.347611      5.208258     -3.105904
  H      -0.779812      2.807194     -4.056625
  H      -4.603353     -3.024697     -1.347393
  H       1.282708     -0.457599     -0.582516
  H      -1.402422     -2.896008     -2.929667
  H      -5.828118     -4.091924      2.652445
  H      -0.129150     -2.305037     -4.972879
  H      -4.285251     -3.913209      4.227986
  H      -7.178716     -4.151931      0.819509
  H       3.055080      0.473441     -1.799253
  H       2.725274     -0.191954     -4.802507
73
Coordinates from ORCA-job Inputs/Rutin_CPCM E -2249.240492244813
  O       0.799417      0.230024      1.605524
  O       1.164880      2.947566      0.752276
  O      -0.528298      4.230889     -0.272016
  O       2.867948      2.435322      3.726219
  O       4.431551      0.043695      3.537996
  O       0.830248     -2.019517      1.188224
  O       2.978775     -2.394861      3.019612
  O       1.618146      5.973858     -1.193398
  O       2.454168      4.241280     -3.156741
  O       0.054514      2.670586     -3.576858
  O      -2.205379     -2.469685     -0.726568
  O      -0.911411     -2.968647      3.102094
  O      -3.480542     -3.633513      3.756987
  O      -6.590497     -3.855684      0.108237
  O       2.776522      0.247098     -2.705248
  O       1.974051     -0.767250     -5.056903
  C       1.022789      1.309019      2.523355
  C       2.526876      1.378396      2.830878
  C       3.019962      0.033648      3.383383
  C       2.625932     -1.133607      2.471648
  C       1.788948      4.591546     -0.858235
  C       0.795469      4.203403      0.240218
  C       1.622605      3.728968     -2.122128
  C       0.150027      3.658649     -2.553558
  C       1.123266     -1.040763      2.161734
  C       0.443095      2.580881      1.931426
  C      -0.758020      3.302372     -1.358102
  C      -2.241773      3.374979     -1.687965
  C      -0.501131     -2.241810      0.896231
  C      -0.923197     -2.128582     -0.399368
  C      -1.365041     -2.768707      1.963682
  C      -2.748608     -3.039860      1.560206
  C      -0.150000     -1.747275     -1.593859
  C      -3.109074     -2.893293      0.204040
  C      -3.775421     -3.487571      2.443132
  C      -4.382161     -3.159451     -0.292192
  C       0.971627     -0.893365     -1.525482
  C      -0.544794     -2.243376     -2.851198
  C      -5.055194     -3.759287      1.966565
  C      -5.355630     -3.597828      0.604666
  C       1.677278     -0.573774     -2.676765
  C       0.165594     -1.915339     -4.004371
  C       1.281405     -1.082305     -3.929654
  H       0.470082      1.113184      3.458231
  H       3.063389      1.599733      1.903377
  H       2.531948     -0.124282      4.364547
  H       3.174656     -1.054064      1.526414
  H       2.812198      4.500398     -0.483641
  H       0.800020      4.960774      1.035164
  H       1.966630      2.709295     -1.919267
  H      -0.151491      4.643508     -2.943542
  H       0.523832     -1.208717      3.064457
  H      -0.615958      2.421974      1.697092
  H       0.519860      3.382058      2.678829
  H      -0.497956      2.290083     -1.022634
  H      -2.841052      3.124251     -0.806499
  H      -2.490849      2.663387     -2.482026
  H      -2.514198      4.383464     -2.021343
  H       2.394785      2.287235      4.565152
  H       4.639078      0.884643      3.984122
  H       2.546336     -2.479430      3.887564
  H       0.661685      6.133506     -1.290387
  H       2.354566      5.210641     -3.102500
  H      -0.775039      2.814436     -4.059946
  H      -4.604077     -3.030401     -1.345129
  H       1.280321     -0.458139     -0.583092
  H      -1.404387     -2.898792     -2.928192
  H      -5.826454     -4.097693      2.655353
  H      -0.132507     -2.306762     -4.972570
  H      -4.283148     -3.918007      4.230127
  H      -7.177796     -4.158997      0.822901
  H       3.052620      0.471219     -1.800186
  H       2.719683     -0.191431     -4.804499
73
Coordinates from ORCA-job Inputs/Rutin_CPCM E -2249.240499786412
  O       0.798071      0.230089      1.605287
  O       1.164637      2.947589      0.751610
  O      -0.526457      4.233508     -0.272888
  O       2.866216      2.435840      3.725962
  O       4.430265      0.044712      3.538526
  O       0.829518     -2.019492      1.188190
  O       2.978510     -2.394228      3.018889
  O       1.623158      5.974029     -1.192500
  O       2.457553      4.240959     -3.156067
  O       0.055951      2.674188     -3.578266
  O      -2.206261     -2.471715     -0.725752
  O      -0.911189     -2.969288      3.102746
  O      -3.479560     -3.636376      3.758152
  O      -6.590163     -3.861082      0.110107
  O       2.773896      0.248119     -2.705129
  O       1.971653     -0.767246     -5.056923
  C       1.021531      1.309339      2.522850
  C       2.525551      1.378799      2.830605
  C       3.018709      0.034182      3.383294
  C       2.625202     -1.132985      2.471238
  C       1.791617      4.591331     -0.857806
  C       0.796998      4.204091      0.239946
  C       1.624648      3.729509     -2.122120
  C       0.152201      3.661598     -2.554398
  C       1.122477     -1.040566      2.161540
  C       0.442038      2.581022      1.930236
  C      -0.756919      3.305945     -1.359634
  C      -2.240464      3.380652     -1.689979
  C      -0.501807     -2.242631      0.896632
  C      -0.924264     -2.129752     -0.398889
  C      -1.365098     -2.769920      1.964340
  C      -2.748541     -3.042275      1.561127
  C      -0.151426     -1.747955     -1.593427
  C      -3.109446     -2.896008      0.205055
  C      -3.774800     -3.490690      2.444332
  C      -4.382430     -3.163253     -0.290859
  C       0.969774     -0.893394     -1.525313
  C      -0.546169     -2.244245     -2.850688
  C      -5.054470     -3.763414      1.968071
  C      -5.355377     -3.602279      0.606252
  C       1.675112     -0.573490     -2.676647
  C       0.163898     -1.915908     -4.004004
  C       1.279287     -1.082348     -3.929518
  H       0.468641      1.113805      3.457670
  H       3.062172      1.600129      1.903172
  H       2.530429     -0.123952      4.364281
  H       3.173854     -1.053005      1.526000
  H       2.814530      4.498473     -0.482719
  H       0.802079      4.961077      1.035265
  H       1.966856      2.709169     -1.919512
  H      -0.147784      4.647059     -2.944053
  H       0.523191     -1.208670      3.064337
  H      -0.616794      2.421615      1.695173
  H       0.517973      3.382457      2.677440
  H      -0.498560      2.293051     -1.024642
  H      -2.840167      3.130022     -0.808756
  H      -2.490200      2.669882     -2.484556
  H      -2.511811      4.389680     -2.022581
  H       2.392835      2.287813      4.564777
  H       4.637186      0.886183      3.983970
  H       2.545586     -2.479426      3.886538
  H       0.667052      6.135325     -1.290133
  H       2.359495      5.210450     -3.101388
  H      -0.773350      2.819030     -4.061482
  H      -4.604686     -3.034457     -1.343757
  H       1.278214     -0.457921     -0.582947
  H      -1.405390     -2.900175     -2.927412
  H      -5.825325     -4.102366      2.657050
  H      -0.134103     -2.307649     -4.972106
  H      -4.281856     -3.921572      4.231388
  H      -7.177011     -4.164937      0.824917
  H       3.051376      0.469645     -1.799767
  H       2.717638     -0.191795     -4.804747
73
Coordinates from ORCA-job Inputs/Rutin_CPCM E -2249.240498122831
  O       0.796765      0.230036      1.604638
  O       1.164420      2.947519      0.750570
  O      -0.523925      4.236840     -0.274099
  O       2.863539      2.436535      3.725921
  O       4.428181      0.045857      3.540013
  O       0.828750     -2.019602      1.188147
  O       2.977599     -2.393589      3.018957
  O       1.629413      5.974859     -1.190563
  O       2.462636      4.241750     -3.154774
  O       0.058871      2.679610     -3.580440
  O      -2.207398     -2.474424     -0.724485
  O      -0.910474     -2.970245      3.103624
  O      -3.477941     -3.639856      3.760023
  O      -6.589323     -3.869085      0.112974
  O       2.770053      0.248795     -2.706296
  O       1.967315     -0.767580     -5.057796
  C       1.019806      1.309594      2.521959
  C       2.523617      1.379247      2.830557
  C       3.016732      0.034821      3.383722
  C       2.624086     -1.132394      2.471347
  C       1.795212      4.591608     -0.856876
  C       0.799045      4.205012      0.239705
  C       1.627894      3.731025     -2.121974
  C       0.155718      3.665983     -2.555628
  C       1.121412     -1.040361      2.161282
  C       0.440584      2.581018      1.928422
  C      -0.755013      3.310744     -1.361963
  C      -2.238194      3.388217     -1.693348
  C      -0.502504     -2.243737      0.897179
  C      -0.925588     -2.131306     -0.398195
  C      -1.364930     -2.771524      1.965304
  C      -2.748240     -3.045320      1.562634
  C      -0.153517     -1.749079     -1.593076
  C      -3.109786     -2.899675      0.206663
  C      -3.773707     -3.494739      2.446257
  C      -4.382583     -3.168545     -0.288822
  C       0.967176     -0.893755     -1.525655
  C      -0.548591     -2.245633     -2.850120
  C      -5.053209     -3.769021      1.970437
  C      -5.354723     -3.608596      0.608678
  C       1.671739     -0.573541     -2.677338
  C       0.160692     -1.917011     -4.003849
  C       1.275631     -1.082822     -3.930023
  H       0.466370      1.114376      3.456524
  H       3.060763      1.600487      1.903410
  H       2.527827     -0.123500      4.364357
  H       3.173022     -1.052131      1.526301
  H       2.817638      4.496708     -0.480964
  H       0.804626      4.961271      1.035719
  H       1.968013      2.709891     -1.919843
  H      -0.142338      4.652252     -2.944725
  H       0.522008     -1.208401      3.064023
  H      -0.617926      2.421066      1.692258
  H       0.515408      3.382678      2.675483
  H      -0.498707      2.297063     -1.027744
  H      -2.838896      3.137398     -0.812860
  H      -2.488455      2.678841     -2.489007
  H      -2.507769      4.398062     -2.024894
  H       2.389530      2.288664      4.564405
  H       4.634379      0.887813      3.984900
  H       2.543866     -2.479296      3.886156
  H       0.673696      6.137885     -1.289149
  H       2.366150      5.211365     -3.099606
  H      -0.770056      2.825719     -4.063915
  H      -4.605311     -3.040233     -1.341678
  H       1.275724     -0.457993     -0.583464
  H      -1.407429     -2.902121     -2.926341
  H      -5.823459     -4.108768      2.659704
  H      -0.137647     -2.309182     -4.971669
  H      -4.279768     -3.926036      4.233471
  H      -7.175537     -4.173633      0.828014
  H       3.049115      0.468380     -1.800881
  H       2.713622     -0.192357     -4.806078
73
Coordinates from ORCA-job Inputs/Rutin_CPCM E -2249.240498731433
  O       0.796237      0.229732      1.604386
  O       1.164036      2.947198      0.749990
  O      -0.523021      4.238396     -0.274414
  O       2.862759      2.436807      3.725338
  O       4.427658      0.046328      3.539990
  O       0.828416     -2.019968      1.188319
  O       2.977347     -2.393462      3.019051
  O       1.632070      5.975301     -1.189227
  O       2.464691      4.242272     -3.154050
  O       0.059777      2.682701     -3.581552
  O      -2.207856     -2.475638     -0.723918
  O      -0.910483     -2.970487      3.104200
  O      -3.477724     -3.640764      3.760881
  O      -6.588926     -3.872732      0.113904
  O       2.768139      0.249297     -2.706732
  O       1.966118     -0.768460     -5.057835
  C       1.019185      1.309475      2.521506
  C       2.522956      1.379307      2.830150
  C       3.016229      0.035030      3.383565
  C       2.623771     -1.132344      2.471288
  C       1.796591      4.591734     -0.856282
  C       0.799754      4.205286      0.239740
  C       1.629021      3.731908     -2.121844
  C       0.156962      3.668395     -2.556125
  C       1.121068     -1.040469      2.161241
  C       0.439865      2.580730      1.927651
  C      -0.754521      3.313222     -1.362974
  C      -2.237524      3.392265     -1.694829
  C      -0.502819     -2.244354      0.897554
  C      -0.926100     -2.132142     -0.397778
  C      -1.365056     -2.772130      1.965848
  C      -2.748305     -3.046400      1.563341
  C      -0.154252     -1.749922     -1.592800
  C      -3.109970     -2.901252      0.207338
  C      -3.773539     -3.496136      2.447081
  C      -4.382609     -3.170925     -0.288093
  C       0.965930     -0.893908     -1.525681
  C      -0.549020     -2.247115     -2.849677
  C      -5.052909     -3.771177      1.971330
  C      -5.354489     -3.611337      0.609519
  C       1.670282     -0.573687     -2.677489
  C       0.160063     -1.918522     -4.003543
  C       1.274535     -1.083680     -3.930008
  H       0.465709      1.114398      3.456077
  H       3.060178      1.600412      1.903016
  H       2.527268     -0.123293      4.364172
  H       3.172716     -1.052174      1.526242
  H       2.818787      4.495768     -0.480031
  H       0.805711      4.961053      1.036217
  H       1.968071      2.710353     -1.920041
  H      -0.140103      4.655140     -2.944795
  H       0.521793     -1.208444      3.064075
  H      -0.618540      2.420493      1.691207
  H       0.514340      3.382490      2.674635
  H      -0.499217      2.299111     -1.029306
  H      -2.838814      3.141136     -0.814841
  H      -2.488095      2.683871     -2.491276
  H      -2.506012      4.402638     -2.025655
  H       2.388628      2.289069      4.563780
  H       4.633676      0.888565      3.984437
  H       2.543436     -2.479163      3.886163
  H       0.676547      6.139130     -1.288297
  H       2.368963      5.211946     -3.098745
  H      -0.769250      2.829200     -4.064742
  H      -4.605407     -3.042983     -1.340979
  H       1.274208     -0.457650     -0.583624
  H      -1.407479     -2.904125     -2.925730
  H      -5.822979     -4.111169      2.660677
  H      -0.138182     -2.311338     -4.971126
  H      -4.279376     -3.927377      4.234362
  H      -7.174957     -4.177462      0.829014
  H       3.047373      0.469031     -1.801401
  H       2.712366     -0.193100     -4.806246
73
Coordinates from ORCA-job Inputs/Rutin_CPCM E -2249.240500886612
  O       0.795276      0.229410      1.603354
  O       1.163571      2.946974      0.748771
  O      -0.520492      4.242102     -0.275597
  O       2.859870      2.437446      3.725212
  O       4.425497      0.047419      3.541253
  O       0.827831     -2.020474      1.188260
  O       2.976154     -2.392953      3.019854
  O       1.638176      5.976613     -1.186494
  O       2.470134      4.243991     -3.152390
  O       0.063107      2.689100     -3.583971
  O      -2.208972     -2.478767     -0.722587
  O      -0.909448     -2.972125      3.105007
  O      -3.475983     -3.644173      3.762975
  O      -6.588081     -3.880791      0.117116
  O       2.763625      0.249778     -2.708580
  O       1.961740     -0.769705     -5.058866
  C       1.017331      1.309456      2.520326
  C       2.520851      1.379676      2.830008
  C       3.014182      0.035639      3.383985
  C       2.622574     -1.132009      2.471676
  C       1.800197      4.592417     -0.854983
  C       0.801753      4.206278      0.239673
  C       1.632448      3.734170     -2.121565
  C       0.160730      3.673587     -2.557445
  C       1.119992     -1.040475      2.160857
  C       0.438226      2.580482      1.925722
  C      -0.752561      3.318691     -1.365521
  C      -2.235097      3.400947     -1.698753
  C      -0.503339     -2.245901      0.898082
  C      -0.927309     -2.134235     -0.397059
  C      -1.364713     -2.774230      1.966844
  C      -2.747911     -3.049653      1.565024
  C      -0.156352     -1.751761     -1.592587
  C      -3.110237     -2.905241      0.209106
  C      -3.772360     -3.500269      2.449235
  C      -4.382732     -3.176456     -0.285842
  C       0.963018     -0.894654     -1.526268
  C      -0.551151     -2.249821     -2.849114
  C      -5.051601     -3.776805      1.973989
  C      -5.353794     -3.617765      0.612217
  C       1.666556     -0.574212     -2.678539
  C       0.157126     -1.921029     -4.003414
  C       1.270863     -1.085118     -3.930671
  H       0.463206      1.114519      3.454547
  H       3.058723      1.600709      1.903230
  H       2.524671     -0.122735      4.364312
  H       3.172010     -1.051899      1.526915
  H       2.821880      4.494405     -0.477869
  H       0.808263      4.961069      1.037062
  H       1.969476      2.711820     -1.920415
  H      -0.134294      4.661220     -2.945449
  H       0.520435     -1.208161      3.063560
  H      -0.619901      2.419961      1.688235
  H       0.511804      3.382305      2.672711
  H      -0.499364      2.303738     -1.032823
  H      -2.837848      3.149660     -0.819826
  H      -2.486190      2.694238     -2.496542
  H      -2.501169      4.412300     -2.028534
  H       2.385101      2.289788      4.563313
  H       4.631009      0.889955      3.985374
  H       2.541571     -2.478741      3.886620
  H       0.683017      6.141961     -1.286538
  H       2.375881      5.213773     -3.096625
  H      -0.765768      2.836625     -4.067118
  H      -4.606023     -3.049034     -1.338685
  H       1.271320     -0.457723     -0.584523
  H      -1.409014     -2.907674     -2.924675
  H      -5.821065     -4.117431      2.663695
  H      -0.141285     -2.314644     -4.970615
  H      -4.277120     -3.931688      4.236782
  H      -7.173539     -4.185997      0.832492
  H       3.043481      0.469833     -1.803552
  H       2.707736     -0.193811     -4.807757
73
Coordinates from ORCA-job Inputs/Rutin_CPCM E -2249.240497424590
  O       0.793942      0.229168      1.601958
  O       1.163116      2.946991      0.747227
  O      -0.517079      4.246897     -0.277532
  O       2.855955      2.438389      3.725124
  O       4.422408      0.048869      3.543094
  O       0.826989     -2.020955      1.188102
  O       2.974235     -2.392166      3.021251
  O       1.646101      5.978643     -1.182771
  O       2.477783      4.246997     -3.150017
  O       0.068472      2.697498     -3.587350
  O      -2.210510     -2.483268     -0.720728
  O      -0.907778     -2.974946      3.105966
  O      -3.473260     -3.649611      3.765792
  O      -6.587149     -3.891191      0.121806
  O       2.757756      0.249917     -2.711132
  O       1.955086     -0.770932     -5.060492
  C       1.014776      1.309624      2.518743
  C       2.517966      1.380282      2.829915
  C       3.011236      0.036551      3.384688
  C       2.620724     -1.131491      2.472406
  C       1.805069      4.593644     -0.853147
  C       0.804376      4.207746      0.239517
  C       1.637473      3.737526     -2.121162
  C       0.166307      3.680439     -2.559380
  C       1.118365     -1.040390      2.160360
  C       0.436105      2.580372      1.923109
  C      -0.749495      3.325725     -1.369264
  C      -2.231364      3.411807     -1.704524
  C      -0.504085     -2.248064      0.898777
  C      -0.929032     -2.137157     -0.396103
  C      -1.364097     -2.777511      1.968142
  C      -2.747251     -3.054545      1.567302
  C      -0.159383     -1.754143     -1.592310
  C      -3.110605     -2.910831      0.211582
  C      -3.770579     -3.506365      2.452199
  C      -4.383022     -3.183850     -0.282572
  C       0.959175     -0.895920     -1.527072
  C      -0.554651     -2.252921     -2.848416
  C      -5.049731     -3.784675      1.977765
  C      -5.352942     -3.626337      0.616137
  C       1.661478     -0.575065     -2.680012
  C       0.152389     -1.923728     -4.003346
  C       1.265376     -1.086704     -3.931684
  H       0.459707      1.114925      3.452454
  H       3.056679      1.601197      1.903597
  H       2.520978     -0.121745      4.364654
  H       3.170923     -1.051511      1.528079
  H       2.826041      4.493147     -0.474752
  H       0.811242      4.961310      1.038054
  H       1.972113      2.714218     -1.920905
  H      -0.126191      4.669158     -2.946554
  H       0.518225     -1.207618      3.062752
  H      -0.621639      2.419564      1.684084
  H       0.508378      3.382236      2.670169
  H      -0.498912      2.309722     -1.037811
  H      -2.836030      3.160475     -0.826936
  H      -2.482927      2.706991     -2.503840
  H      -2.494542      4.424295     -2.033128
  H       2.380404      2.290886      4.562808
  H       4.627277      0.891725      3.986914
  H       2.538695     -2.478001      3.887528
  H       0.691394      6.145871     -1.284002
  H       2.385278      5.216888     -3.093323
  H      -0.759899      2.846513     -4.070913
  H      -4.607102     -3.056917     -1.335306
  H       1.267876     -0.458427     -0.585716
  H      -1.411897     -2.911658     -2.923217
  H      -5.818329     -4.126162      2.668005
  H      -0.146416     -2.317952     -4.970182
  H      -4.273670     -3.938353      4.240088
  H      -7.171783     -4.197116      0.837548
  H       3.038390      0.470283     -1.806445
  H       2.700793     -0.194368     -4.810054
73
Coordinates from ORCA-job Inputs/Rutin_CPCM E -2249.240497151667
  O       0.793145      0.228950      1.601142
  O       1.162786      2.947038      0.746364
  O      -0.515238      4.249451     -0.278869
  O       2.853612      2.438979      3.724981
  O       4.420598      0.049725      3.544099
  O       0.826560     -2.021312      1.188030
  O       2.973138     -2.391682      3.022188
  O       1.650389      5.979888     -1.180513
  O       2.482326      4.249109     -3.148505
  O       0.072011      2.702367     -3.589517
  O      -2.211332     -2.485984     -0.719616
  O      -0.906602     -2.976937      3.106467
  O      -3.471497     -3.653138      3.767416
  O      -6.586787     -3.896408      0.124726
  O       2.754431      0.249920     -2.712597
  O       1.950992     -0.771297     -5.061453
  C       1.013234      1.309669      2.517805
  C       2.516249      1.380638      2.829818
  C       3.009496      0.037112      3.385093
  C       2.619611     -1.131212      2.472899
  C       1.807763      4.594445     -0.851993
  C       0.805706      4.208544      0.239401
  C       1.640504      3.739610     -2.120901
  C       0.169718      3.684343     -2.560621
  C       1.117400     -1.040435      2.160101
  C       0.434801      2.580244      1.921581
  C      -0.747566      3.329514     -1.371663
  C      -2.229044      3.417434     -1.708174
  C      -0.504453     -2.249464      0.899185
  C      -0.929968     -2.138961     -0.395543
  C      -1.363598     -2.779678      1.968889
  C      -2.746748     -3.057605      1.568632
  C      -0.161097     -1.755538     -1.592128
  C      -3.110768     -2.914066      0.213076
  C      -3.769441     -3.510047      2.453947
  C      -4.383241     -3.187827     -0.280538
  C       0.957076     -0.896776     -1.527486
  C      -0.556789     -2.254553     -2.848014
  C      -5.048626     -3.789090      1.980055
  C      -5.352525     -3.630882      0.618567
  C       1.658571     -0.575566     -2.680831
  C       0.149464     -1.925020     -4.003320
  C       1.262063     -1.087430     -3.932265
  H       0.457640      1.115091      3.451225
  H       3.055379      1.601470      1.903725
  H       2.518830     -0.121045      4.364883
  H       3.170251     -1.051314      1.528820
  H       2.828298      4.492651     -0.472786
  H       0.812528      4.961422      1.038584
  H       1.973920      2.715793     -1.921191
  H      -0.121444      4.673681     -2.947241
  H       0.516843     -1.207371      3.062267
  H      -0.622716      2.419280      1.681619
  H       0.506258      3.382102      2.668726
  H      -0.498289      2.312965     -1.040916
  H      -2.834744      3.166140     -0.831283
  H      -2.480726      2.713457     -2.508193
  H      -2.490832      4.430461     -2.036234
  H       2.377712      2.291560      4.562481
  H       4.625120      0.892655      3.987933
  H       2.537124     -2.477494      3.888226
  H       0.695920      6.148109     -1.282309
  H       2.390655      5.219040     -3.091133
  H      -0.755970      2.852231     -4.073487
  H      -4.607840     -3.061006     -1.333175
  H       1.266122     -0.459066     -0.586343
  H      -1.413742     -2.913721     -2.922342
  H      -5.816728     -4.131003      2.670631
  H      -0.149606     -2.319372     -4.970019
  H      -4.271513     -3.942463      4.242025
  H      -7.170962     -4.202721      0.840677
  H       3.035410      0.470578     -1.808108
  H       2.696475     -0.194283     -4.811377
73
Coordinates from ORCA-job Inputs/Rutin_CPCM E -2249.240503049329
  O       0.789696      0.228228      1.597849
  O       1.161391      2.947126      0.742901
  O      -0.507559      4.259893     -0.284246
  O       2.843375      2.441409      3.725047
  O       4.413089      0.053481      3.548419
  O       0.824817     -2.022555      1.187584
  O       2.969048     -2.389487      3.025230
  O       1.668433      5.984362     -1.171731
  O       2.500793      4.256573     -3.142527
  O       0.085922      2.721860     -3.598168
  O      -2.214769     -2.496646     -0.715137
  O      -0.901831     -2.984566      3.108441
  O      -3.464131     -3.667344      3.774001
  O      -6.585117     -3.918112      0.136664
  O       2.741347      0.249725     -2.718384
  O       1.934413     -0.772526     -5.065416
  C       1.006748      1.309946      2.514089
  C       2.508989      1.382275      2.829737
  C       3.002284      0.039516      3.386781
  C       2.615196     -1.129730      2.474569
  C       1.818920      4.597142     -0.847500
  C       0.811285      4.211665      0.238843
  C       1.652738      3.747386     -2.119905
  C       0.183463      3.699914     -2.565555
  C       1.113534     -1.040431      2.158920
  C       0.429315      2.579806      1.915362
  C      -0.739770      3.344897     -1.381215
  C      -2.219652      3.440418     -1.722632
  C      -0.505935     -2.254921      0.900702
  C      -0.933842     -2.145950     -0.393370
  C      -1.361545     -2.788129      1.971837
  C      -2.744653     -3.069816      1.573992
  C      -0.168160     -1.760792     -1.591470
  C      -3.111450     -2.927000      0.219118
  C      -3.764667     -3.524904      2.461045
  C      -4.384098     -3.203982     -0.272264
  C       0.948630     -0.900052     -1.529217
  C      -0.565685     -2.260535     -2.846513
  C      -5.043950     -3.807132      1.989389
  C      -5.350693     -3.649551      0.628470
  C       1.646900     -0.577475     -2.684156
  C       0.137395     -1.929663     -4.003355
  C       1.248587     -1.090042     -3.934713
  H       0.448906      1.115810      3.446252
  H       3.049957      1.603102      1.904727
  H       2.509923     -0.118422      4.365758
  H       3.167521     -1.049753      1.531471
  H       2.837656      4.489799     -0.465020
  H       0.818137      4.961836      1.040564
  H       1.980824      2.721421     -1.922350
  H      -0.102067      4.691787     -2.949916
  H       0.511439     -1.206379      3.060231
  H      -0.627229      2.418080      1.671533
  H       0.497387      3.381748      2.662716
  H      -0.495996      2.326122     -1.053250
  H      -2.829408      3.189328     -0.848484
  H      -2.471928      2.739874     -2.525464
  H      -2.475829      4.455601     -2.048436
  H       2.365842      2.294032      4.561616
  H       4.615998      0.896596      3.992634
  H       2.531066     -2.475601      3.890236
  H       0.714977      6.156941     -1.275744
  H       2.412753      5.226688     -3.082616
  H      -0.740361      2.875520     -4.083858
  H      -4.610853     -3.077665     -1.324503
  H       1.259163     -0.461696     -0.588862
  H      -1.421563     -2.921289     -2.918954
  H      -5.809955     -4.150965      2.681328
  H      -0.162936     -2.324453     -4.969485
  H      -4.262519     -3.959080      4.249891
  H      -7.167313     -4.226149      0.853486
  H       3.023911      0.471005     -1.814583
  H       2.679397     -0.194221     -4.816833
73
Coordinates from ORCA-job Inputs/Rutin_CPCM E -2249.240499792635
  O       0.786084      0.227485      1.594584
  O       1.159927      2.947023      0.739154
  O      -0.499564      4.270242     -0.290234
  O       2.832740      2.444011      3.725134
  O       4.405254      0.057338      3.553142
  O       0.822967     -2.023829      1.187335
  O       2.964687     -2.387213      3.028629
  O       1.687256      5.988554     -1.162864
  O       2.520169      4.263918     -3.136424
  O       0.100733      2.741782     -3.607525
  O      -2.218344     -2.507435     -0.710313
  O      -0.896851     -2.992653      3.110568
  O      -3.456394     -3.682423      3.780851
  O      -6.583245     -3.940767      0.149058
  O       2.727658      0.250103     -2.724004
  O       1.916359     -0.772178     -5.069394
  C       1.000064      1.310272      2.510300
  C       2.501488      1.383978      2.829746
  C       2.994765      0.042028      3.388721
  C       2.610583     -1.128187      2.476514
  C       1.830510      4.599534     -0.843057
  C       0.816998      4.214583      0.237951
  C       1.665607      3.755037     -2.119093
  C       0.197986      3.715644     -2.570949
  C       1.109497     -1.040391      2.157890
  C       0.423672      2.579344      1.908847
  C      -0.731408      3.360295     -1.391493
  C      -2.209597      3.463351     -1.738027
  C      -0.507483     -2.260515      0.902441
  C      -0.937899     -2.152908     -0.390919
  C      -1.359387     -2.796952      1.974990
  C      -2.742437     -3.082495      1.579650
  C      -0.175616     -1.765747     -1.590557
  C      -3.112136     -2.940291      0.225510
  C      -3.759625     -3.540500      2.468449
  C      -4.384936     -3.220601     -0.263591
  C       0.939875     -0.903137     -1.530714
  C      -0.575380     -2.265683     -2.844844
  C      -5.038992     -3.826043      1.999079
  C      -5.348690     -3.668990      0.638774
  C       1.634562     -0.578773     -2.687323
  C       0.124156     -1.933062     -4.003314
  C       1.234000     -1.091498     -3.937102
  H       0.439874      1.116680      3.441165
  H       3.044420      1.604717      1.905879
  H       2.500615     -0.115648      4.366829
  H       3.164665     -1.048183      1.534443
  H       2.847300      4.486393     -0.457082
  H       0.823721      4.962029      1.042217
  H       1.988148      2.726874     -1.923814
  H      -0.081744      4.710139     -2.952834
  H       0.505807     -1.205300      3.058313
  H      -0.631854      2.416762      1.661113
  H       0.488299      3.381489      2.656270
  H      -0.493187      2.339293     -1.066384
  H      -2.823482      3.212453     -0.866706
  H      -2.462256      2.766220     -2.543693
  H      -2.460226      4.480622     -2.061606
  H       2.353417      2.296771      4.560694
  H       4.606496      0.900642      3.997748
  H       2.524577     -2.473618      3.892518
  H       0.734899      6.165710     -1.269230
  H       2.435860      5.234193     -3.073818
  H      -0.723606      2.899588     -4.095194
  H      -4.613939     -3.094692     -1.315394
  H       1.252176     -0.464541     -0.591062
  H      -1.430253     -2.927920     -2.915380
  H      -5.802785     -4.172043      2.692373
  H      -0.177795     -2.327901     -4.968924
  H      -4.253083     -3.976720      4.258028
  H      -7.163355     -4.250742      0.866741
  H       3.012294      0.471273     -1.820857
  H       2.661085     -0.192889     -4.822331
73
Coordinates from ORCA-job Inputs/Rutin_CPCM E -2249.240504038585
  O       0.786441      0.227479      1.595370
  O       1.159958      2.946580      0.739464
  O      -0.500719      4.268029     -0.290235
  O       2.833909      2.443816      3.725316
  O       4.406313      0.056860      3.552828
  O       0.823330     -2.023727      1.187708
  O       2.965312     -2.387463      3.028576
  O       1.685083      5.987196     -1.164643
  O       2.517827      4.262179     -3.137623
  O       0.098973      2.738527     -3.607114
  O      -2.217767     -2.505559     -0.710709
  O      -0.897291     -2.992078      3.110357
  O      -3.457195     -3.681129      3.779932
  O      -6.583458     -3.937227      0.147479
  O       2.729998      0.250516     -2.722438
  O       1.917640     -0.769257     -5.068597
  C       1.000918      1.310196      2.511030
  C       2.502453      1.383789      2.830000
  C       2.995762      0.041769      3.388802
  C       2.611240     -1.128355      2.476625
  C       1.828999      4.598402     -0.844118
  C       0.816067      4.213577      0.237505
  C       1.664032      3.753189     -2.119714
  C       0.196211      3.712744     -2.570845
  C       1.110075     -1.040464      2.158402
  C       0.424351      2.579278      1.909696
  C      -0.732309      3.357167     -1.390807
  C      -2.210785      3.458484     -1.736631
  C      -0.507128     -2.259804      0.902425
  C      -0.937264     -2.151571     -0.390984
  C      -1.359476     -2.796039      1.974682
  C      -2.742561     -3.080940      1.579008
  C      -0.174643     -1.764222     -1.590324
  C      -3.111947     -2.938233      0.224834
  C      -3.760108     -3.538727      2.467505
  C      -4.384774     -3.217826     -0.264575
  C       0.941456     -0.902405     -1.529932
  C      -0.574810     -2.262919     -2.844977
  C      -5.039523     -3.823602      1.997816
  C      -5.348886     -3.666076      0.637493
  C       1.636264     -0.577615     -2.686321
  C       0.124822     -1.929869     -4.003272
  C       1.235199     -1.089061     -3.936509
  H       0.441037      1.116653      3.442094
  H       3.045158      1.604510      1.905997
  H       2.501887     -0.115897      4.367034
  H       3.165072     -1.048367      1.534411
  H       2.845974      4.485867     -0.458424
  H       0.822605      4.961579      1.041261
  H       1.987243      2.725300     -1.924145
  H      -0.084343      4.706946     -2.952861
  H       0.506587     -1.205578      3.058928
  H      -0.631326      2.416695      1.662641
  H       0.489525      3.381606      2.656873
  H      -0.493032      2.336576     -1.065155
  H      -2.823849      3.207608     -0.864725
  H      -2.463123      2.760442     -2.541603
  H      -2.462778      4.475217     -2.060839
  H       2.354771      2.296573      4.560980
  H       4.607793      0.899943      3.997735
  H       2.525431     -2.473804      3.892590
  H       0.732612      6.164011     -1.270524
  H       2.432958      5.232426     -3.075315
  H      -0.725311      2.896229     -4.094900
  H      -4.613531     -3.091543     -1.316383
  H       1.254025     -0.464779     -0.589933
  H      -1.430143     -2.924518     -2.915897
  H      -5.803589     -4.169519      2.690853
  H      -0.177503     -2.323761     -4.969154
  H      -4.254150     -3.975072      4.256884
  H      -7.163829     -4.247153      0.864977
  H       3.014662      0.470873     -1.819073
  H       2.662878     -0.190775     -4.821211
73
Coordinates from ORCA-job Inputs/Rutin_CPCM E -2249.240500357855
  O       0.785115      0.227170      1.594585
  O       1.159293      2.946167      0.738165
  O      -0.498287      4.270723     -0.292526
  O       2.830299      2.444780      3.725423
  O       4.403876      0.058283      3.554366
  O       0.822804     -2.024161      1.187795
  O       2.964063     -2.386646      3.029683
  O       1.691295      5.987894     -1.162171
  O       2.524085      4.263807     -3.135850
  O       0.103753      2.744286     -3.610444
  O      -2.218943     -2.508506     -0.709030
  O      -0.895650     -2.994585      3.111088
  O      -3.454689     -3.685833      3.782191
  O      -6.582699     -3.944617      0.151475
  O       2.726576      0.250265     -2.723424
  O       1.911401     -0.767155     -5.069617
  C       0.998703      1.310263      2.509985
  C       2.499965      1.384401      2.830102
  C       2.993409      0.042680      3.389514
  C       2.609861     -1.127757      2.477313
  C       1.832641      4.598540     -0.842947
  C       0.817713      4.214060      0.236909
  C       1.668156      3.754951     -2.119685
  C       0.200874      3.717092     -2.572824
  C       1.108841     -1.040452      2.158261
  C       0.422376      2.579006      1.907619
  C      -0.729562      3.361298     -1.394364
  C      -2.207515      3.464597     -1.741859
  C      -0.507531     -2.261516      0.903051
  C      -0.938541     -2.153405     -0.390090
  C      -1.358734     -2.798735      1.975735
  C      -2.741816     -3.084769      1.580909
  C      -0.177131     -1.765082     -1.589886
  C      -3.112151     -2.942188      0.226975
  C      -3.758420     -3.543608      2.469936
  C      -4.384982     -3.222922     -0.261743
  C       0.939073     -0.903335     -1.530006
  C      -0.578569     -2.262752     -2.844554
  C      -5.037844     -3.829616      2.000946
  C      -5.348130     -3.672274      0.640817
  C       1.632650     -0.577633     -2.686858
  C       0.119776     -1.928734     -4.003338
  C       1.230209     -1.087968     -3.937078
  H       0.438118      1.116981      3.440681
  H       3.043318      1.605114      1.906478
  H       2.499040     -0.115001      4.367487
  H       3.164191     -1.047747      1.535397
  H       2.848901      4.484009     -0.455979
  H       0.824171      4.961295      1.041377
  H       1.989533      2.726354     -1.924817
  H      -0.077866      4.712137     -2.953975
  H       0.504977     -1.205380      3.058572
  H      -0.632963      2.415957      1.659404
  H       0.486457      3.381570      2.654627
  H      -0.491891      2.340093     -1.069478
  H      -2.821823      3.213627     -0.870853
  H      -2.459678      2.767546     -2.547742
  H      -2.458057      4.481881     -2.065475
  H       2.350534      2.297536      4.560725
  H       4.604809      0.901401      3.999444
  H       2.523395     -2.473163      3.893277
  H       0.739229      6.166343     -1.268934
  H       2.440456      5.234104     -3.072665
  H      -0.719635      2.903692     -4.099180
  H      -4.614477     -3.096717     -1.313401
  H       1.252649     -0.466517     -0.589978
  H      -1.433943     -2.924327     -2.915107
  H      -5.801181     -4.176357      2.694372
  H      -0.183647     -2.321856     -4.969184
  H      -4.251111     -3.980610      4.259521
  H      -7.162365     -4.255256      0.869232
  H       3.012018      0.470056     -1.820150
  H       2.656930     -0.188882     -4.822622
73
Coordinates from ORCA-job Inputs/Rutin_CPCM E -2249.240500896042
  O       0.784560      0.227042      1.594486
  O       1.159084      2.945903      0.737648
  O      -0.497348      4.271525     -0.293447
  O       2.829131      2.445235      3.725326
  O       4.403055      0.058931      3.554907
  O       0.822534     -2.024338      1.188075
  O       2.963585     -2.386308      3.030278
  O       1.693776      5.987966     -1.161408
  O       2.526508      4.264112     -3.135270
  O       0.105595      2.746088     -3.611679
  O      -2.219477     -2.509382     -0.708269
  O      -0.895289     -2.995231      3.111546
  O      -3.454029     -3.687276      3.783140
  O      -6.582165     -3.948390      0.152769
  O       2.725783      0.249754     -2.723348
  O       1.908651     -0.765423     -5.069924
  C       0.997927      1.310334      2.509686
  C       2.499082      1.384661      2.830099
  C       2.992622      0.043094      3.389808
  C       2.609372     -1.127508      2.477676
  C       1.834055      4.598416     -0.842615
  C       0.818350      4.214139      0.236574
  C       1.669777      3.755370     -2.119737
  C       0.202689      3.718433     -2.573605
  C       1.108369     -1.040384      2.158407
  C       0.421668      2.578927      1.906860
  C      -0.728455      3.362582     -1.395715
  C      -2.206185      3.466605     -1.743960
  C      -0.507742     -2.262046      0.903437
  C      -0.939081     -2.153885     -0.389609
  C      -1.358638     -2.799528      1.976266
  C      -2.741690     -3.086003      1.581740
  C      -0.178251     -1.765045     -1.589618
  C      -3.112281     -2.943692      0.227839
  C      -3.757934     -3.545363      2.470906
  C      -4.384976     -3.225221     -0.260758
  C       0.938335     -0.903770     -1.529827
  C      -0.580517     -2.261696     -2.844433
  C      -5.037242     -3.832144      2.002056
  C      -5.347734     -3.675157      0.641934
  C       1.631434     -0.577603     -2.686831
  C       0.117262     -1.927121     -4.003388
  C       1.228054     -1.086802     -3.937206
  H       0.437139      1.117255      3.440306
  H       3.042677      1.605265      1.906593
  H       2.498115     -0.114603      4.367713
  H       3.163852     -1.047616      1.535837
  H       2.849996      4.483094     -0.455071
  H       0.824838      4.961121      1.041266
  H       1.990464      2.726510     -1.925085
  H      -0.075413      4.713752     -2.954497
  H       0.504495     -1.205283      3.058719
  H      -0.633535      2.415617      1.658225
  H       0.485350      3.381649      2.653715
  H      -0.491370      2.341183     -1.071036
  H      -2.821113      3.215363     -0.873479
  H      -2.458053      2.770129     -2.550439
  H      -2.456103      4.484136     -2.067299
  H       2.349062      2.298099      4.560474
  H       4.603816      0.902204      3.999771
  H       2.522458     -2.472915      3.893629
  H       0.741912      6.167022     -1.268941
  H       2.443460      5.234435     -3.071755
  H      -0.717221      2.906442     -4.101059
  H      -4.614664     -3.099199     -1.312394
  H       1.252589     -0.467757     -0.589666
  H      -1.436146     -2.922935     -2.915043
  H      -5.800308     -4.179300      2.695567
  H      -0.187018     -2.319517     -4.969255
  H      -4.250236     -3.982470      4.260564
  H      -7.161572     -4.259302      0.870609
  H       3.011615      0.469063     -1.820071
  H       2.654391     -0.187344     -4.823118
