73
Coordinates from ORCA-job Inputs/Rutin_CPCM E -2249.240500896042
  O           0.78455956321007      0.22704249789795      1.59448551388927
  O           1.15908380785018      2.94590290813150      0.73764772521449
  O          -0.49734790279587      4.27152481198703     -0.29344684926389
  O           2.82913054395162      2.44523516187423      3.72532616186120
  O           4.40305479049797      0.05893134444182      3.55490683291673
  O           0.82253398533085     -2.02433849924018      1.18807549304408
  O           2.96358489068201     -2.38630764762165      3.03027805978959
  O           1.69377620038001      5.98796576847117     -1.16140848491792
  O           2.52650781325869      4.26411241232497     -3.13527041966247
  O           0.10559500840188      2.74608846424320     -3.61167934543220
  O          -2.21947701021298     -2.50938214693982     -0.70826884052798
  O          -0.89528879927165     -2.99523121584755      3.11154624811272
  O          -3.45402866875584     -3.68727583924947      3.78314016395479
  O          -6.58216486101231     -3.94839012271671      0.15276878644549
  O           2.72578307620402      0.24975412010697     -2.72334810936925
  O           1.90865122534439     -0.76542300212535     -5.06992405835402
  C           0.99792743451819      1.31033428941909      2.50968567237742
  C           2.49908233182226      1.38466106214387      2.83009947404915
  C           2.99262198955181      0.04309448592578      3.38980825215501
  C           2.60937235211561     -1.12750820687222      2.47767565587116
  C           1.83405476143766      4.59841630822346     -0.84261546888828
  C           0.81835022404740      4.21413930548235      0.23657391282190
  C           1.66977667360803      3.75536961457209     -2.11973691959707
  C           0.20268893587941      3.71843343538989     -2.57360468741867
  C           1.10836873484279     -1.04038399724904      2.15840738267060
  C           0.42166779553294      2.57892673996035      1.90685957537147
  C          -0.72845486584318      3.36258207535768     -1.39571485390393
  C          -2.20618461686692      3.46660483432351     -1.74395959934820
  C          -0.50774189961521     -2.26204626244563      0.90343698510117
  C          -0.93908069396374     -2.15388460492150     -0.38960878810294
  C          -1.35863824630943     -2.79952770538495      1.97626608942068
  C          -2.74169011445159     -3.08600344089938      1.58174041086457
  C          -0.17825138274697     -1.76504453200328     -1.58961751414585
  C          -3.11228095349712     -2.94369199159863      0.22783909462477
  C          -3.75793370553732     -3.54536315888747      2.47090580417141
  C          -4.38497623313622     -3.22522050079835     -0.26075790874909
  C           0.93833519544086     -0.90377028317706     -1.52982724544370
  C          -0.58051695476515     -2.26169587695177     -2.84443306829120
  C          -5.03724239677330     -3.83214381995865      2.00205636442172
  C          -5.34773360097759     -3.67515748803296      0.64193382146766
  C           1.63143392490067     -0.57760305291477     -2.68683085977816
  C           0.11726212612299     -1.92712142237550     -4.00338827210609
  C           1.22805410309354     -1.08680170072180     -3.93720597711294
  H           0.43713906829192      1.11725487961540      3.44030599214660
  H           3.04267733708112      1.60526474736082      1.90659302467076
  H           2.49811483311352     -0.11460284790771      4.36771309053505
  H           3.16385155349118     -1.04761607165031      1.53583656203989
  H           2.84999551610456      4.48309362099250     -0.45507075702716
  H           0.82483756099493      4.96112068474553      1.04126606380614
  H           1.99046414395364      2.72650962915972     -1.92508452358172
  H          -0.07541304950425      4.71375245447233     -2.95449690164712
  H           0.50449479140767     -1.20528303304225      3.05871928797713
  H          -0.63353472536930      2.41561670859314      1.65822549046836
  H           0.48535043013595      3.38164896810183      2.65371547209875
  H          -0.49136999049839      2.34118341299206     -1.07103641503001
  H          -2.82111317351963      3.21536318811994     -0.87347863851658
  H          -2.45805341622944      2.77012888380833     -2.55043906092701
  H          -2.45610268851732      4.48413615517904     -2.06729866209131
  H           2.34906165414258      2.29809922119947      4.56047416106339
  H           4.60381637705269      0.90220424553657      3.99977141047665
  H           2.52245756820709     -2.47291489264724      3.89362906415450
  H           0.74191184230236      6.16702173723836     -1.26894067224283
  H           2.44345971465887      5.23443488726596     -3.07175503025165
  H          -0.71722149791348      2.90644167270239     -4.10105938350911
  H          -4.61466426973250     -3.09919923163416     -1.31239400297674
  H           1.25258932068623     -0.46775709846030     -0.58966557606505
  H          -1.43614603670498     -2.92293487069719     -2.91504263928408
  H          -5.80030766656251     -4.17930035028700      2.69556729363961
  H          -0.18701794889244     -2.31951729771805     -4.96925519586953
  H          -4.25023633145919     -3.98247040095832      4.26056358099226
  H          -7.16157190759360     -4.25930155087122      0.87060891971353
  H           3.01161532714343      0.46906302727925     -1.82007060324714
  H           2.65439108203574     -0.18734360003216     -4.82311761651875
