
                                 *****************
                                 * O   R   C   A *
                                 *****************

                                            #,                                       
                                            ###                                      
                                            ####                                     
                                            #####                                    
                                            ######                                   
                                           ########,                                 
                                     ,,################,,,,,                         
                               ,,#################################,,                 
                          ,,##########################################,,             
                       ,#########################################, ''#####,          
                    ,#############################################,,   '####,        
                  ,##################################################,,,,####,       
                ,###########''''           ''''###############################       
              ,#####''   ,,,,##########,,,,          '''####'''          '####       
            ,##' ,,,,###########################,,,                        '##       
           ' ,,###''''                  '''############,,,                           
         ,,##''                                '''############,,,,        ,,,,,,###''
      ,#''                                            '''#######################'''  
     '                                                          ''''####''''         
             ,#######,   #######,   ,#######,      ##                                
            ,#'     '#,  ##    ##  ,#'     '#,    #''#        ,####,    ,#,          
            ##       ##  ##   ,#'  ##            #'  '#       #'       ,# #          
            ##       ##  #######   ##           ,######,      #####,      #          
            '#,     ,#'  ##    ##  '#,     ,#' ,#      #,     #,   #      #          
             '#######'   ##     ##  '#######'  #'      '#     '####' #    #          



                #########################################################
                #                        -***-                          #
                #          Department of theory and spectroscopy        #
                #                                                       #
                #                      Frank Neese                      #
                #                                                       #
                #     Directorship, Architecture, Infrastructure        #
                #                    SHARK, DRIVERS                     #
                #        Core code/Algorithms in most modules           #
                #                                                       #
                #        Max Planck Institute fuer Kohlenforschung      #
                #                Kaiser Wilhelm Platz 1                 #
                #                 D-45470 Muelheim/Ruhr                 #
                #                      Germany                          #
                #                                                       #
                #                  All rights reserved                  #
                #                        -***-                          #
                #########################################################


                         Program Version 6.1.1  -  RELEASE   -
                                (GIT: $487d211c$)
                          ($2025-11-21 10:33:24 +0100$)


 With contributions from (in alphabetic order):
[Max-Planck-Institut fuer Kohlenforschung]                               
  Daniel Aravena         : Magnetic Suceptibility                        
  Michael Atanasov       : Ab Initio Ligand Field Theory (pilot matlab implementation)
  Alexander A. Auer      : GIAO ZORA, VPT2 properties, NMR spectrum      
  Ute Becker             : All parallelization in ORCA, NUMFREQ, NUMCALC 
  Giovanni Bistoni       : ED, misc. LED, open-shell LED, HFLD           
  Dmytro Bykov           : pre 5.0 version of the SCF Hessian            
  Marcos Casanova-Páez   : Triplet and SCS-CIS(D). UHF-(DLPNO)-IP/EA/STEOM-CCSD. UHF-CVS-IP/STEOM-CCSD   
  Vijay G. Chilkuri      : MRCI spin determinant printing, contributions to CSF-ICE 
  Pauline Colinet        : FMM embedding                                 
  Dipayan Datta          : RHF DLPNO-CCSD density                        
  Achintya Kumar Dutta   : EOM-CC, STEOM-CC                              
  Nicolas Foglia         : Exact transition moments, OPA infrastructure, MCD improvements    
  Dmitry Ganyushin       : Spin-Orbit,Spin-Spin,Magnetic field MRCI      
  Miquel Garcia-Rates    : C-PCM and meta-GGA Hessian, CCSD/C-PCM, Gaussian charge scheme 
  Tiago L. C. Gouveia    : GS-ROHF, GS-ROCIS                             
  Yang Guo               : DLPNO-NEVPT2, F12-NEVPT2, CIM, IAO-localization        
  Andreas Hansen         : Spin unrestricted coupled pair/coupled cluster methods 
  Ingolf Harden          : AUTO-CI MPn and infrastructure                
  Benjamin Helmich-Paris : MC-RPA, TRAH-(SCF,CASSCF), AVAS, COSX integrals, SCF dyn. polar., MC-PDFT, srDFT 
  Lee Huntington         : MR-EOM, pCC                                   
  Robert Izsak           : Overlap fitted RIJCOSX, COSX-SCS-MP3, EOM     
  Riya Kayal             : Wick's Theorem for AUTO-CI, AUTO-CI UHF-CCSDT 
  Emily Kempfer          : AUTO-CI RHF CISDT and CCSDT, approximate NEVPT4
  Christian Kollmar      : KDIIS, OOCD, Brueckner-CCSD(T), CCSD density, CASPT2, CASPT2-K, improved NEVPT2 
  Axel Koslowski         : Symmetry handling                             
  Simone Kossmann        : meta-GGA functionals, TD-DFT gradient, OOMP2, (MP2 Hessian; deprecated post 5.0) 
  Lucas Lang             : DCDCAS, Hyperfine gauge corrections, ICE-SOC+SSC
  Marvin Lechner         : AUTO-CI (C++ implementation), FIC-MRCC        
  Spencer Leger          : CASSCF response                               
  Dagmar Lenk            : GEPOL surface, SMD, ORCA-2-JSON               
  Dimitrios Liakos       : Extrapolation schemes; Compound Job, Property file
  Dimitrios Manganas     : Further ROCIS development; embedding schemes. LFT, Crystal Embedding 
  Dimitrios Pantazis     : SARC Basis sets                               
  Anastasios Papadopoulos: AUTO-CI, single reference methods and gradients 
  Taras Petrenko         : pre 6.0 DFT Hessian and TD-DFT gradient,  ECA, NRVS 
  Petra Pikulova         : Analytic Raman intensities                    
  Peter Pinski           : DLPNO-MP2, DLPNO-MP2 Gradient                 
  Shashank Vittal Rao    : ES-AILFT, MagRelax                            
  Christoph Reimann      : Effective Core Potentials                     
  Marius Retegan         : Local ZFS, SOC                                
  Christoph Riplinger    : Optimizer, TS searches, QM/MM, DLPNO-CCSD(T), (RO)-DLPNO pert. Triples 
  Michael Roemelt        : Original ROCIS implementation, recursive CI coupling coefficients
  Masaaki Saitow         : Open-shell DLPNO-CCSD energy and density      
  Barbara Sandhoefer     : DKH picture change effects                    
  Yorick L. A. Schmerwitz: GMF and freeze-and-release deltaSCF, NEB S-IDPP initial path                    
  Kantharuban Sivalingam : CASSCF convergence/infrastructure, NEVPT2, NEVPT3, NEVPT4(SD), FIC-MRCI and CEPA variants
  Bernardo de Souza      : ESD, SOC TD-DFT                               
  Georgi L. Stoychev     : AutoAux, RI-MP2 NMR, DLPNO-MP2 response, X2C  
  Van Anh Tran           : RI-MP2 g-tensors                              
  Willem Van den Heuvel  : Paramagnetic NMR                              
  Zikuan Wang            : NOTCH, Electric field optimization            
  Frank Wennmohs         : Technical directorship and infrastructure     
  Hang Xu                : AUTO-CI-Response properties                   
                                                                         
[FACCTs GmbH]                                                            
  Markus Bursch, Nicolas Foglia, Miquel Garcia-Rates, Ingolf Harden, Hagen Neugebauer, Anastasios Papadopoulos, 
  Christoph Riplinger, Bernardo de Souza, Georgi L. Stoychev                                                    
                                                                 
  APM, various basis sets, CI-OPT, improved COSX, DLPNO-Multilevel,           
  DOCKER, DRACO, updates on ESD, Fragmentator, GOAT, IRC, LR-CPCM, L-BFGS, MBIS, meta-GGA TD-DFT gradient, ML-optimized integration grids, 
  MM, NACMEs, nearIR, NEB, NEB-TS, NL-DFT gradient (VV10), 2- and 3-layer-ONIOM, interface openCOSMO-RS, QMMM,   
  Crystal-QMMM, RESP, rigid body optimization, SF, symmetry and pop. for TD-DFT, various functionals, SOLVATOR                                   
                                                                         
[Other institutions]                                                     
  V. Asgeirsson          : NEB                                           
  Christoph Bannwarth    : sTDA-DFT, sTD-DFT, PBEh-3c, B97-3c, D3        
  Giovanni Bistoni       : ETS/NOCV, ADLD/ADEX, COVALED                  
  Martin Brehm           : Molecular dynamics                            
  Ronald Cardenas        : ETS/NOCV                                      
  Martina Colucci        : COVALED                                       
  Sebastian Ehlert       : rSCAN, r2SCAN, r2SCAN-3c, D4, dhf basis sets  
  Marvin Friede          : D4 for Fr, Ra, Ac-Lr                          
  Lars Goerigk           : TD-DFT with DH, B97 family of functionals     
  Stefan Grimme          : VdW corrections, initial TS optimization, DFT functionals, gCP, sTDA/sTD-DF 
  Waldemar Hujo          : DFT-NL                                        
  H. Jonsson             : NEB                                           
  Holger Kruse           : gCP                                           
  Marcel Mueller         : wB97X-3c, vDZP basis set                      
  Hagen Neugebauer       : wr2SCAN, Native XTB                           
  Gianluca Regni         : ADLD/ADEX                                     
  Tobias Risthaus        : pre 6.0 range-separated hybrid DFT and stability analysis
  Lukas Wittmann         : regularized MP2, r2SCAN double-hybrids, wr2SCAN        
                                                                         
We gratefully acknowledge several colleagues who have allowed us to      
interface, adapt or use parts of their codes:                            
  Ed Valeev, F. Pavosevic, A. Kumar             : LibInt (2-el integral package), F12 methods 
  Garnet Chan, S. Sharma, J. Yang, R. Olivares  : DMRG                   
  Ulf Ekstrom                                   : XCFun DFT Library      
  Mihaly Kallay                                 : mrcc  (arbitrary order and MRCC methods)
  Frank Weinhold                                : gennbo (NPA and NBO analysis)           
  Simon Mueller                                 : openCOSMO-RS                            
  Christopher J. Cramer and Donald G. Truhlar   : smd solvation model                     
  S Lehtola, MJT Oliveira, MAL Marques          : LibXC Library                           
  Liviu Ungur et al                             : ANISO software                          


 Your calculation uses the libint2 library for the computation of 2-el integrals
 For citations please refer to: http://libint.valeyev.net

 Your ORCA version has been built with support for libXC version: 7.0.0
 For citations please refer to: https://libxc.gitlab.io

 This ORCA versions uses:
   CBLAS   interface :  Fast vector & matrix operations
   LAPACKE interface :  Fast linear algebra routines
   SCALAPACK package :  Parallel linear algebra routines
   Shared memory     :  Shared parallel matrices
   BLAS/LAPACK       :  OpenBLAS 0.3.29  USE64BITINT DYNAMIC_ARCH NO_AFFINITY Zen SINGLE_THREADED
        Core in use  :  Zen
   Copyright (c) 2011-2014, The OpenBLAS Project


  ***********************************
  * Starting time: Sun Aug  9 02:02:18 2026
  * Host name:     Asus
  * Process ID:    3753
  * Working dir.:  /mnt/d/Computational Projects/Project 3/CPCM_Solvation
  ***********************************

Warning: RI is on but no J-basis has been assigned. Assigning Def2/J (nothing to worry about!)
================================================================================

----- Orbital basis set information -----
Your calculation utilizes the basis: 6-31G*
   H-He, Li-Ne : W. J. Hehre, R. Ditchfield and J.A. Pople, J. Chem. Phys. 56, 2257 (1972).
                 Note: He and Ne are unpublished basis sets taken from the Gaussian program.
                 Note: Li and B from J. D. Dill and J. A. Pople, J. Chem. Phys. 62, 2921 (1975).
   Na - Ar     : M. M. Francl, W. J. Pietro, W. J. Hehre, J. S. Binkley, M. S. Gordon, 
                 D. J. DeFrees and J. A. Pople, J. Chem. Phys. 77, 3654 (1982).
   Sc - Zn     : V. A. Rassolov, J. A. Pople, M. A. Ratner, and T. L. Windus, J. Chem. Phys. 109, 1223 (1998).
   K,Ca,Ga-Kr  : V.A. Rassolov, M.A. Ratner, J.A. Pople, P.C. Redfern, and L.A. Curtiss, J. Comput. Chem. 22, 976 (2001).
----- AuxJ basis set information -----
Your calculation utilizes the auxiliary basis: def2/J
   H-Rn: F. Weigend, Phys. Chem. Chem. Phys. 8, 1057 (2006).
   Fr-Lr: K. Eichkorn, F. Weigend, O. Treutler, R. Ahlrichs; Theor. Chem. Acc. 97, 119 (1997).

================================================================================
                                        WARNINGS
                       Please study these warnings very carefully!
================================================================================


WARNING: Geometry Optimization
  ===> : Switching off AutoStart
         For restart on a previous wavefunction, please use MOREAD

================================================================================
                                       INPUT FILE
================================================================================
NAME = Inputs/Catechin_CPCM.inp
|  1> ! B3LYP 6-31G* Opt Freq CPCM(Water)
|  2> 
|  3> * xyz 0 1
|  4> O      0.4094090324    0.6724249232   -0.2882716321
|  5> O     -0.6376846653   -2.8929241188    0.0048822739
|  6> O      4.3920488657   -1.9466996802    0.4097474596
|  7> O      4.6582724734    2.7663665807   -0.1132977739
|  8> O     -4.1648607920    1.0879722781    2.0815943295
|  9> O     -5.8390191443    0.7965142225   -0.0635512282
| 10> C      0.0932799378   -1.7041303711    0.3241345521
| 11> C     -0.3225791959   -0.5292011332   -0.5835216714
| 12> C      1.5825049114   -1.9778803883    0.1264384824
| 13> C      2.3844961045   -0.7123566203    0.0751774276
| 14> C      1.7609057361    0.5192628091   -0.1469072272
| 15> C     -1.7964804515   -0.1746983210   -0.4360865039
| 16> C      3.7781771271   -0.7411990572    0.2108014878
| 17> C      2.5082204402    1.6982318134   -0.1993037860
| 18> C     -2.3097534411    0.3099690833    0.7802349997
| 19> C     -2.6689908853   -0.3187400136   -1.5278049767
| 20> C      4.5344306939    0.4274066112    0.1483516152
| 21> C      3.8900083959    1.6405870613   -0.0558961218
| 22> C     -3.6631660015    0.6269227489    0.8963974969
| 23> C     -4.0232481519    0.0067459912   -1.4092811784
| 24> C     -4.5167713073    0.4765002082   -0.1951329852
| 25> H     -0.0936132220   -1.4560993932    1.3766407104
| 26> H     -0.1339201339   -0.7906725321   -1.6344436068
| 27> H      1.7400471475   -2.5361263606   -0.8056485050
| 28> H      1.9276296583   -2.6257927988    0.9417830798
| 29> H      1.9968131152    2.6419321341   -0.3605415440
| 30> H     -1.6427373028    0.4421811165    1.6272253393
| 31> H     -0.4018277205   -3.5663054060    0.6666437001
| 32> H     -2.2979686012   -0.6904000207   -2.4808586180
| 33> H      5.6140974993    0.4129250644    0.2550350905
| 34> H     -4.6728155371   -0.1144713445   -2.2701984267
| 35> H      5.3508581964   -1.7992647065    0.4755682761
| 36> H      4.0786492310    3.5292724473   -0.2777748853
| 37> H     -3.4483410134    1.1250638696    2.7327403872
| 38> H     -6.2865709991    0.6326833031   -0.9072760376
| 39> *
| 40> 
| 41>                          ****END OF INPUT****
================================================================================

                       *****************************
                       * Geometry Optimization Run *
                       *****************************

Geometry optimization settings:
Update method            Update   .... BFGS
Choice of coordinates    CoordSys .... (2022) Redundant Internals
Initial Hessian          InHess   .... Almloef's Model
Max. no of cycles        MaxIter  .... 105

Convergence Tolerances:
Energy Change            TolE     ....  5.0000e-06 Eh
Max. Gradient            TolMAXG  ....  3.0000e-04 Eh/bohr
RMS Gradient             TolRMSG  ....  1.0000e-04 Eh/bohr
Max. Displacement        TolMAXD  ....  4.0000e-03 bohr
RMS Displacement         TolRMSD  ....  2.0000e-03 bohr
Strict Convergence                .... False

------------------------------------------------------------------------------
                        ORCA OPTIMIZATION COORDINATE SETUP
------------------------------------------------------------------------------

The optimization will be done in redundant internal coordinates (2022)
Making redundant internal coordinates   ...  (2022 redundants) done
Evaluating the initial hessian          ...  (Almloef) done
Evaluating the coordinates              ...  done
Calculating the B-matrix                .... done
Calculating the G-matrix                .... done
The number of degrees of freedom        ....  183

    -----------------------------------------------------------------
                    Redundant Internal Coordinates


    -----------------------------------------------------------------
         Definition                    Initial Value    Approx d2E/dq
    -----------------------------------------------------------------
      1. B(C   6,O   1)                  1.4316         0.480302   
      2. B(C   7,O   0)                  1.4377         0.469707   
      3. B(C   7,C   6)                  1.5418         0.357688   
      4. B(C   8,C   6)                  1.5270         0.377676   
      5. B(C   9,C   8)                  1.4991         0.418447   
      6. B(C  10,C   9)                  1.3982         0.606169   
      7. B(C  10,O   0)                  1.3675         0.607874   
      8. B(C  11,C   7)                  1.5231         0.383183   
      9. B(C  12,C   9)                  1.4006         0.601019   
     10. B(C  12,O   2)                  1.3674         0.608149   
     11. B(C  13,C  10)                  1.3969         0.609268   
     12. B(C  14,C  11)                  1.4063         0.588397   
     13. B(C  15,C  11)                  1.4049         0.591417   
     14. B(C  16,C  12)                  1.3934         0.617126   
     15. B(C  17,O   3)                  1.3641         0.615344   
     16. B(C  17,C  16)                  1.3888         0.627525   
     17. B(C  17,C  13)                  1.3904         0.623867   
     18. B(C  18,C  14)                  1.3949         0.613704   
     19. B(C  18,O   4)                  1.3671         0.608716   
     20. B(C  19,C  15)                  1.3979         0.607022   
     21. B(C  20,C  19)                  1.3923         0.619629   
     22. B(C  20,C  18)                  1.3938         0.616111   
     23. B(C  20,O   5)                  1.3668         0.609448   
     24. B(H  21,C   6)                  1.0974         0.350483   
     25. B(H  22,C   7)                  1.0993         0.348042   
     26. B(H  23,C   8)                  1.0978         0.349882   
     27. B(H  24,C   8)                  1.0971         0.350794   
     28. B(H  25,C  13)                  1.0854         0.366229   
     29. B(H  26,C  14)                  1.0862         0.365191   
     30. B(H  27,O   1)                  0.9731         0.495456   
     31. B(H  28,C  15)                  1.0882         0.362538   
     32. B(H  29,C  16)                  1.0850         0.366747   
     33. B(H  30,C  19)                  1.0853         0.366413   
     34. B(H  31,O   2)                  0.9723         0.496968   
     35. B(H  32,O   3)                  0.9721         0.497291   
     36. B(H  33,O   4)                  0.9689         0.503231   
     37. B(H  34,O   5)                  0.9690         0.502995   
     38. A(C   7,O   0,C  10)          115.5194         0.406319   
     39. A(C   6,O   1,H  27)          107.4101         0.351449   
     40. A(C  12,O   2,H  31)          108.5952         0.366041   
     41. A(C  17,O   3,H  32)          108.6008         0.366820   
     42. A(C  18,O   4,H  33)          108.9141         0.366886   
     43. A(C  20,O   5,H  34)          108.8689         0.366932   
     44. A(O   1,C   6,C   8)          108.6761         0.377731   
     45. A(C   8,C   6,H  21)          109.3164         0.323460   
     46. A(C   7,C   6,C   8)          108.8709         0.361338   
     47. A(O   1,C   6,C   7)          111.3335         0.374200   
     48. A(C   7,C   6,H  21)          110.2702         0.320592   
     49. A(O   1,C   6,H  21)          108.3377         0.334533   
     50. A(C   6,C   7,C  11)          112.4197         0.362232   
     51. A(C  11,C   7,H  22)          108.2995         0.323858   
     52. A(C   6,C   7,H  22)          109.5877         0.320226   
     53. A(O   0,C   7,C  11)          106.1582         0.377220   
     54. A(O   0,C   7,H  22)          107.9243         0.332910   
     55. A(O   0,C   7,C   6)          112.2531         0.372763   
     56. A(C   6,C   8,C   9)          112.0133         0.371183   
     57. A(C   9,C   8,H  24)          110.8336         0.329012   
     58. A(C   6,C   8,H  24)          108.4477         0.323507   
     59. A(C   9,C   8,H  23)          108.8723         0.328871   
     60. A(C   6,C   8,H  23)          109.9394         0.323369   
     61. A(H  23,C   8,H  24)          106.5903         0.288344   
     62. A(C   8,C   9,C  10)          120.6920         0.403078   
     63. A(C  10,C   9,C  12)          118.5100         0.429901   
     64. A(C   8,C   9,C  12)          120.7738         0.402472   
     65. A(C   9,C  10,C  13)          120.7171         0.430954   
     66. A(O   0,C  10,C  13)          115.4890         0.428356   
     67. A(O   0,C  10,C   9)          123.7691         0.427965   
     68. A(C  14,C  11,C  15)          118.7336         0.426381   
     69. A(C   7,C  11,C  15)          120.1252         0.395169   
     70. A(C   7,C  11,C  14)          121.1392         0.394815   
     71. A(O   2,C  12,C   9)          118.6194         0.427345   
     72. A(C   9,C  12,C  16)          121.2301         0.431286   
     73. A(O   2,C  12,C  16)          120.1504         0.429377   
     74. A(C  17,C  13,H  25)          121.3064         0.354292   
     75. A(C  10,C  13,H  25)          119.1650         0.352874   
     76. A(C  10,C  13,C  17)          119.5263         0.433189   
     77. A(C  11,C  14,C  18)          120.2953         0.429217   
     78. A(C  11,C  14,H  26)          119.4886         0.350632   
     79. A(C  18,C  14,H  26)          120.2147         0.353138   
     80. A(C  11,C  15,C  19)          120.7904         0.428769   
     81. A(C  19,C  15,H  28)          118.9547         0.352050   
     82. A(C  11,C  15,H  28)          120.2546         0.350504   
     83. A(C  17,C  16,H  29)          119.1986         0.354728   
     84. A(C  12,C  16,H  29)          121.6329         0.353725   
     85. A(C  12,C  16,C  17)          119.1685         0.434646   
     86. A(C  13,C  17,C  16)          120.8317         0.435497   
     87. A(O   3,C  17,C  16)          117.7596         0.431577   
     88. A(O   3,C  17,C  13)          121.4085         0.431124   
     89. A(C  14,C  18,C  20)          120.2969         0.432780   
     90. A(O   4,C  18,C  20)          119.3785         0.429322   
     91. A(O   4,C  18,C  14)          120.3246         0.429021   
     92. A(C  20,C  19,H  30)          121.1521         0.353913   
     93. A(C  15,C  19,H  30)          119.1170         0.352683   
     94. A(C  15,C  19,C  20)          119.7308         0.432371   
     95. A(O   5,C  20,C  18)          119.4599         0.429414   
     96. A(C  18,C  20,C  19)          120.1499         0.433528   
     97. A(O   5,C  20,C  19)          120.3901         0.429853   
     98. D(C   8,C   6,O   1,H  27)     65.9638         0.018199   
     99. D(H  21,C   6,O   1,H  27)    -52.7142         0.018199   
    100. D(C   7,C   6,O   1,H  27)   -174.1324         0.018199   
    101. D(O   0,C   7,C   6,O   1)   -179.4312         0.010274   
    102. D(C  11,C   7,O   0,C  10)    169.6073         0.017390   
    103. D(H  22,C   7,O   0,C  10)    -74.4615         0.017390   
    104. D(C  11,C   7,C   6,O   1)     60.9594         0.010274   
    105. D(O   0,C   7,C   6,C   8)    -59.6428         0.010274   
    106. D(C  11,C   7,C   6,H  21)    -59.3256         0.010274   
    107. D(C  11,C   7,C   6,C   8)   -179.2522         0.010274   
    108. D(C   6,C   7,O   0,C  10)     46.4061         0.017390   
    109. D(O   0,C   7,C   6,H  21)     60.2838         0.010274   
    110. D(C   9,C   8,C   6,H  21)    -77.3982         0.011376   
    111. D(C   9,C   8,C   6,O   1)    164.5417         0.011376   
    112. D(C   9,C   8,C   6,C   7)     43.1176         0.011376   
    113. D(H  23,C   8,C   6,O   1)     43.3562         0.011376   
    114. D(H  23,C   8,C   6,C   7)    -78.0679         0.011376   
    115. D(H  23,C   8,C   6,H  21)    161.4162         0.011376   
    116. D(C  12,C   9,C   8,C   6)    165.1162         0.012950   
    117. D(C  10,C   9,C   8,H  23)    105.0984         0.012950   
    118. D(C  10,C   9,C   8,H  24)   -137.9694         0.012950   
    119. D(C  12,C   9,C   8,H  23)    -73.0846         0.012950   
    120. D(C  10,C   9,C   8,C   6)    -16.7008         0.012950   
    121. D(C  13,C  10,C   9,C  12)     -1.5573         0.025359   
    122. D(C  13,C  10,C   9,C   8)   -179.7807         0.025359   
    123. D(O   0,C  10,C   9,C  12)   -179.6650         0.025359   
    124. D(O   0,C  10,C   9,C   8)      2.1116         0.025359   
    125. D(C  13,C  10,O   0,C   7)    164.4381         0.027035   
    126. D(C   9,C  10,O   0,C   7)    -17.3641         0.027035   
    127. D(C  14,C  11,C   7,C   6)     64.1237         0.010945   
    128. D(C  14,C  11,C   7,O   0)    -58.9726         0.010945   
    129. D(C  15,C  11,C   7,C   6)   -116.3913         0.010945   
    130. D(C  15,C  11,C   7,O   0)    120.5124         0.010945   
    131. D(C  14,C  11,C   7,H  22)   -174.6499         0.010945   
    132. D(C  16,C  12,C   9,C  10)      0.9870         0.024907   
    133. D(C  16,C  12,C   9,C   8)    179.2089         0.024907   
    134. D(O   2,C  12,C   9,C  10)   -179.1161         0.024907   
    135. D(O   2,C  12,C   9,C   8)     -0.8942         0.024907   
    136. D(C  16,C  12,O   2,H  31)     -0.5914         0.027061   
    137. D(C   9,C  12,O   2,H  31)    179.5105         0.027061   
    138. D(H  25,C  13,C  10,C   9)   -179.2291         0.025634   
    139. D(C  17,C  13,C  10,O   0)    179.5732         0.025634   
    140. D(C  17,C  13,C  10,C   9)      1.3158         0.025634   
    141. D(H  25,C  13,C  10,O   0)     -0.9717         0.025634   
    142. D(H  26,C  14,C  11,C  15)   -178.9621         0.023819   
    143. D(H  26,C  14,C  11,C   7)      0.5299         0.023819   
    144. D(C  18,C  14,C  11,C  15)      0.6243         0.023819   
    145. D(C  18,C  14,C  11,C   7)   -179.8837         0.023819   
    146. D(H  28,C  15,C  11,C  14)    179.9256         0.024076   
    147. D(H  28,C  15,C  11,C   7)      0.4284         0.024076   
    148. D(C  19,C  15,C  11,C  14)     -0.2857         0.024076   
    149. D(C  19,C  15,C  11,C   7)   -179.7829         0.024076   
    150. D(H  29,C  16,C  12,C   9)    179.8454         0.026339   
    151. D(H  29,C  16,C  12,O   2)     -0.0500         0.026339   
    152. D(C  17,C  16,C  12,C   9)     -0.1730         0.026339   
    153. D(C  17,C  16,C  12,O   2)    179.9316         0.026339   
    154. D(C  16,C  17,C  13,H  25)   -179.9171         0.026953   
    155. D(C  16,C  17,C  13,C  10)     -0.4741         0.026953   
    156. D(O   3,C  17,C  13,H  25)     -0.0662         0.026953   
    157. D(O   3,C  17,C  13,C  10)    179.3768         0.026953   
    158. D(C  16,C  17,O   3,H  32)    178.8212         0.027750   
    159. D(O   3,C  17,C  16,C  12)   -179.9477         0.027290   
    160. D(C  13,C  17,O   3,H  32)     -1.0341         0.027750   
    161. D(C  13,C  17,C  16,H  29)    179.8905         0.027290   
    162. D(C  13,C  17,C  16,C  12)     -0.0915         0.027290   
    163. D(O   3,C  17,C  16,H  29)      0.0344         0.027290   
    164. D(C  20,C  18,C  14,H  26)    179.0565         0.026030   
    165. D(C  20,C  18,C  14,C  11)     -0.5269         0.026030   
    166. D(O   4,C  18,C  14,H  26)     -0.9414         0.026030   
    167. D(O   4,C  18,C  14,C  11)    179.4752         0.026030   
    168. D(C  20,C  18,O   4,H  33)    179.4459         0.027115   
    169. D(C  14,C  18,O   4,H  33)     -0.5561         0.027115   
    170. D(H  30,C  19,C  15,H  28)     -0.2427         0.025434   
    171. D(H  30,C  19,C  15,C  11)    179.9659         0.025434   
    172. D(C  20,C  19,C  15,H  28)    179.6370         0.025434   
    173. D(C  20,C  19,C  15,C  11)     -0.1544         0.025434   
    174. D(C  18,C  20,C  19,H  30)   -179.8616         0.026566   
    175. D(C  18,C  20,C  19,C  15)      0.2612         0.026566   
    176. D(O   5,C  20,C  19,H  30)     -0.0072         0.026566   
    177. D(O   5,C  20,C  19,C  15)   -179.8844         0.026566   
    178. D(C  19,C  20,C  18,C  14)      0.0780         0.026247   
    179. D(C  19,C  20,C  18,O   4)   -179.9240         0.026247   
    180. D(O   5,C  20,C  18,C  14)   -179.7777         0.026247   
    181. D(O   5,C  20,C  18,O   4)      0.2202         0.026247   
    182. D(C  19,C  20,O   5,H  34)      0.2967         0.027185   
    183. D(C  18,C  20,O   5,H  34)   -179.8479         0.027185   
    -----------------------------------------------------------------

Number of atoms                         .... 35
Number of degrees of freedom            .... 183


         *************************************************************
         *                GEOMETRY OPTIMIZATION CYCLE   1            *
         *************************************************************
---------------------------------
CARTESIAN COORDINATES (ANGSTROEM)
---------------------------------
  O      0.409409    0.672425   -0.288272
  O     -0.637685   -2.892924    0.004882
  O      4.392049   -1.946700    0.409747
  O      4.658272    2.766367   -0.113298
  O     -4.164861    1.087972    2.081594
  O     -5.839019    0.796514   -0.063551
  C      0.093280   -1.704130    0.324135
  C     -0.322579   -0.529201   -0.583522
  C      1.582505   -1.977880    0.126438
  C      2.384496   -0.712357    0.075177
  C      1.760906    0.519263   -0.146907
  C     -1.796480   -0.174698   -0.436087
  C      3.778177   -0.741199    0.210801
  C      2.508220    1.698232   -0.199304
  C     -2.309753    0.309969    0.780235
  C     -2.668991   -0.318740   -1.527805
  C      4.534431    0.427407    0.148352
  C      3.890008    1.640587   -0.055896
  C     -3.663166    0.626923    0.896397
  C     -4.023248    0.006746   -1.409281
  C     -4.516771    0.476500   -0.195133
  H     -0.093613   -1.456099    1.376641
  H     -0.133920   -0.790673   -1.634444
  H      1.740047   -2.536126   -0.805649
  H      1.927630   -2.625793    0.941783
  H      1.996813    2.641932   -0.360542
  H     -1.642737    0.442181    1.627225
  H     -0.401828   -3.566305    0.666644
  H     -2.297969   -0.690400   -2.480859
  H      5.614097    0.412925    0.255035
  H     -4.672816   -0.114471   -2.270198
  H      5.350858   -1.799265    0.475568
  H      4.078649    3.529272   -0.277775
  H     -3.448341    1.125064    2.732740
  H     -6.286571    0.632683   -0.907276

----------------------------
CARTESIAN COORDINATES (A.U.)
----------------------------
  NO LB      ZA    FRAG     MASS         X           Y           Z
   0 O     8.0000    0    15.999    0.773671    1.270699   -0.544754
   1 O     8.0000    0    15.999   -1.205049   -5.466834    0.009226
   2 O     8.0000    0    15.999    8.299770   -3.678729    0.774310
   3 O     8.0000    0    15.999    8.802859    5.227675   -0.214102
   4 O     8.0000    0    15.999   -7.870446    2.055970    3.933643
   5 O     8.0000    0    15.999  -11.034147    1.505194   -0.120094
   6 C     6.0000    0    12.011    0.176274   -3.220340    0.612526
   7 C     6.0000    0    12.011   -0.609586   -1.000045   -1.102696
   8 C     6.0000    0    12.011    2.990501   -3.737652    0.238934
   9 C     6.0000    0    12.011    4.506045   -1.346159    0.142065
  10 C     6.0000    0    12.011    3.327630    0.981265   -0.277614
  11 C     6.0000    0    12.011   -3.394856   -0.330132   -0.824084
  12 C     6.0000    0    12.011    7.139720   -1.400663    0.398357
  13 C     6.0000    0    12.011    4.739850    3.209193   -0.376630
  14 C     6.0000    0    12.011   -4.364801    0.585757    1.474430
  15 C     6.0000    0    12.011   -5.043662   -0.602331   -2.887133
  16 C     6.0000    0    12.011    8.568832    0.807681    0.280344
  17 C     6.0000    0    12.011    7.351051    3.100260   -0.105628
  18 C     6.0000    0    12.011   -6.922381    1.184712    1.693946
  19 C     6.0000    0    12.011   -7.602837    0.012748   -2.663155
  20 C     6.0000    0    12.011   -8.535461    0.900455   -0.368748
  21 H     1.0000    0     1.008   -0.176903   -2.751629    2.601474
  22 H     1.0000    0     1.008   -0.253072   -1.494155   -3.088651
  23 H     1.0000    0     1.008    3.288213   -4.792584   -1.522455
  24 H     1.0000    0     1.008    3.642692   -4.962029    1.779712
  25 H     1.0000    0     1.008    3.773430    4.992528   -0.681325
  26 H     1.0000    0     1.008   -3.104324    0.835601    3.075010
  27 H     1.0000    0     1.008   -0.759344   -6.739341    1.259774
  28 H     1.0000    0     1.008   -4.342531   -1.304667   -4.688143
  29 H     1.0000    0     1.008   10.609107    0.780315    0.481946
  30 H     1.0000    0     1.008   -8.830342   -0.216319   -4.290053
  31 H     1.0000    0     1.008   10.111657   -3.400118    0.898694
  32 H     1.0000    0     1.008    7.707530    6.669358   -0.524918
  33 H     1.0000    0     1.008   -6.516420    2.126063    5.164131
  34 H     1.0000    0     1.008  -11.879898    1.195598   -1.714503

--------------------------------
INTERNAL COORDINATES (ANGSTROEM)
--------------------------------
 O      0   0   0     0.000000000000     0.00000000     0.00000000
 O      1   0   0     3.727473435942     0.00000000     0.00000000
 O      1   2   0     4.817516412250    72.59131064     0.00000000
 O      1   2   3     4.740047263091   132.17841631     0.35430319
 O      1   2   3     5.168451287042    78.00796776   214.29546813
 O      5   1   2     2.736677447283    99.98800366   280.52873866
 C      2   1   3     1.431594161308    23.04836704    41.85251069
 C      1   2   3     1.437666349156    22.12889086   139.52294632
 C      7   2   1     1.527027776396   108.67611050   240.61484894
 C      9   7   2     1.499122402248   112.01328928   164.54172272
 C      1   2   3     1.367474266040    99.34436669     0.54899915
 C      8   1   2     1.523087090003   106.15815097   123.74134805
 C      3   1   2     1.367351367864    29.36166943   179.87233736
 C     11   1   2     1.396850951046   115.48899606   180.34002563
 C     12   8   1     1.406339096649   121.13923681   301.02743700
 C     12   8   1     1.404945440275   120.12517879   120.51238342
 C     13   3   1     1.393362354918   120.15041836   180.24353381
 C      4   1   2     1.364149613767    29.79225022   359.44424275
 C      5   1   2     1.367097605585    41.45986302   298.29772776
 C     16  12   8     1.397856135024   120.79043929   180.21708418
 C      6   5   1     1.366770672269    60.56591896    13.52333604
 H      7   2   1     1.097368503483   108.33774663   121.93684731
 H      8   1   2     1.099270871270   107.92429584   239.67253559
 H      9   7   2     1.097836178045   109.93941922    43.35617442
 H      9   7   2     1.097127337692   108.44770134   287.17564762
 H     14  11   1     1.085405620935   119.16498974   359.02827054
 H     15  12   8     1.086178247734   119.48861765     0.52987744
 H      2   1   3     0.973138757613   130.33606261    48.55379749
 H     16  12   8     1.088163562784   120.25455876     0.42837994
 H     17  13   3     1.085021423651   121.63292023   359.95003012
 H     20  16  12     1.085269523579   119.11695435   179.96589543
 H      3   1   2     0.972308996149   137.95268229   178.69066565
 H      4   1   2     0.972132287602    78.81247161   178.51512709
 H      5   1   2     0.968900184613    69.92359349    97.51632972
 H      6   5   1     0.969027753412   169.43207388    14.87621998

---------------------------
INTERNAL COORDINATES (A.U.)
---------------------------
 O      0   0   0     0.000000000000     0.00000000     0.00000000
 O      1   0   0     7.043903965398     0.00000000     0.00000000
 O      1   2   0     9.103786664824    72.59131064     0.00000000
 O      1   2   3     8.957391189084   132.17841631     0.35430319
 O      1   2   3     9.766957469023    78.00796776   214.29546813
 O      5   1   2     5.171570892244    99.98800366   280.52873866
 C      2   1   3     2.705320899793    23.04836704    41.85251069
 C      1   2   3     2.716795671859    22.12889086   139.52294632
 C      7   2   1     2.885664296280   108.67611050   240.61484894
 C      9   7   2     2.832930781475   112.01328928   164.54172272
 C      1   2   3     2.584151858000    99.34436669     0.54899915
 C      8   1   2     2.878217478216   106.15815097   123.74134805
 C      3   1   2     2.583919614106    29.36166943   179.87233736
 C     11   1   2     2.639665747384   115.48899606   180.34002563
 C     12   8   1     2.657595744093   121.13923681   301.02743700
 C     12   8   1     2.654962115221   120.12517879   120.51238342
 C     13   3   1     2.633073256110   120.15041836   180.24353381
 C      4   1   2     2.577869175714    29.79225022   359.44424275
 C      5   1   2     2.583440072895    41.45986302   298.29772776
 C     16  12   8     2.641565269816   120.79043929   180.21708418
 C      6   5   1     2.582822258464    60.56591896    13.52333604
 H      7   2   1     2.073725939575   108.33774663   121.93684731
 H      8   1   2     2.077320893697   107.92429584   239.67253559
 H      9   7   2     2.074609716416   109.93941922    43.35617442
 H      9   7   2     2.073270202277   108.44770134   287.17564762
 H     14  11   1     2.051119367786   119.16498974   359.02827054
 H     15  12   8     2.052579420840   119.48861765     0.52987744
 H      2   1   3     1.838965742192   130.33606261    48.55379749
 H     16  12   8     2.056331122574   120.25455876     0.42837994
 H     17  13   3     2.050393340138   121.63292023   359.95003012
 H     20  16  12     2.050862181056   119.11695435   179.96589543
 H      3   1   2     1.837397720269   137.95268229   178.69066565
 H      4   1   2     1.837063789509    78.81247161   178.51512709
 H      5   1   2     1.830956000024    69.92359349    97.51632972
 H      6   5   1     1.831197070118   169.43207388    14.87621998

---------------------
BASIS SET INFORMATION
---------------------
There are 3 groups of distinct atoms

 Group   1 Type O   : 10s4p1d contracted to 3s2p1d pattern {631/31/1}
 Group   2 Type C   : 10s4p1d contracted to 3s2p1d pattern {631/31/1}
 Group   3 Type H   : 4s contracted to 2s pattern {31}

Atom   0O    basis set group =>   1
Atom   1O    basis set group =>   1
Atom   2O    basis set group =>   1
Atom   3O    basis set group =>   1
Atom   4O    basis set group =>   1
Atom   5O    basis set group =>   1
Atom   6C    basis set group =>   2
Atom   7C    basis set group =>   2
Atom   8C    basis set group =>   2
Atom   9C    basis set group =>   2
Atom  10C    basis set group =>   2
Atom  11C    basis set group =>   2
Atom  12C    basis set group =>   2
Atom  13C    basis set group =>   2
Atom  14C    basis set group =>   2
Atom  15C    basis set group =>   2
Atom  16C    basis set group =>   2
Atom  17C    basis set group =>   2
Atom  18C    basis set group =>   2
Atom  19C    basis set group =>   2
Atom  20C    basis set group =>   2
Atom  21H    basis set group =>   3
Atom  22H    basis set group =>   3
Atom  23H    basis set group =>   3
Atom  24H    basis set group =>   3
Atom  25H    basis set group =>   3
Atom  26H    basis set group =>   3
Atom  27H    basis set group =>   3
Atom  28H    basis set group =>   3
Atom  29H    basis set group =>   3
Atom  30H    basis set group =>   3
Atom  31H    basis set group =>   3
Atom  32H    basis set group =>   3
Atom  33H    basis set group =>   3
Atom  34H    basis set group =>   3
---------------------------------
AUXILIARY/J BASIS SET INFORMATION
---------------------------------
There are 3 groups of distinct atoms

 Group   1 Type O   : 12s5p4d2f1g contracted to 6s4p3d1f1g pattern {711111/2111/211/2/1}
 Group   2 Type C   : 12s5p4d2f1g contracted to 6s4p3d1f1g pattern {711111/2111/211/2/1}
 Group   3 Type H   : 5s2p1d contracted to 3s1p1d pattern {311/2/1}

Atom   0O    basis set group =>   1
Atom   1O    basis set group =>   1
Atom   2O    basis set group =>   1
Atom   3O    basis set group =>   1
Atom   4O    basis set group =>   1
Atom   5O    basis set group =>   1
Atom   6C    basis set group =>   2
Atom   7C    basis set group =>   2
Atom   8C    basis set group =>   2
Atom   9C    basis set group =>   2
Atom  10C    basis set group =>   2
Atom  11C    basis set group =>   2
Atom  12C    basis set group =>   2
Atom  13C    basis set group =>   2
Atom  14C    basis set group =>   2
Atom  15C    basis set group =>   2
Atom  16C    basis set group =>   2
Atom  17C    basis set group =>   2
Atom  18C    basis set group =>   2
Atom  19C    basis set group =>   2
Atom  20C    basis set group =>   2
Atom  21H    basis set group =>   3
Atom  22H    basis set group =>   3
Atom  23H    basis set group =>   3
Atom  24H    basis set group =>   3
Atom  25H    basis set group =>   3
Atom  26H    basis set group =>   3
Atom  27H    basis set group =>   3
Atom  28H    basis set group =>   3
Atom  29H    basis set group =>   3
Atom  30H    basis set group =>   3
Atom  31H    basis set group =>   3
Atom  32H    basis set group =>   3
Atom  33H    basis set group =>   3
Atom  34H    basis set group =>   3
------------------------------------------------------------------------------
                             ORCA STARTUP CALCULATIONS
                           -- RI-GTO INTEGRALS CHOSEN --
------------------------------------------------------------------------------
------------------------------------------------------------------------------
                   ___                                                        
                  /   \      - P O W E R E D   B Y -                         
                 /     \                                                     
                 |  |  |   _    _      __       _____    __    __             
                 |  |  |  | |  | |    /  \     |  _  \  |  |  /  |          
                  \  \/   | |  | |   /    \    | | | |  |  | /  /          
                 / \  \   | |__| |  /  /\  \   | |_| |  |  |/  /          
                |  |  |   |  __  | /  /__\  \  |    /   |      \           
                |  |  |   | |  | | |   __   |  |    \   |  |\   \          
                \     /   | |  | | |  |  |  |  | |\  \  |  | \   \       
                 \___/    |_|  |_| |__|  |__|  |_| \__\ |__|  \__/        
                                                                              
                      - O R C A' S   B I G   F R I E N D -                    
                                      &                                       
                       - I N T E G R A L  F E E D E R -                       
                                                                              
 v1 FN, 2020, v2 2021, v3 2022-2024                                           
------------------------------------------------------------------------------


----------------------
SHARK INTEGRAL PACKAGE
----------------------

Number of atoms                             ...     35
Number of basis functions                   ...    322
Number of shells                            ...    154
Maximum angular momentum                    ...      2
Integral batch strategy                     ... SHARK/LIBINT Hybrid
RI-J (if used) integral strategy            ... SPLIT-RIJ (Revised 2003 algorithm where possible)
Printlevel                                  ...      1
Contraction scheme used                     ... SEGMENTED contraction
Prescreening option                         ... SCHWARTZ
   Thresh                                   ... 2.500e-11
   Tcut                                     ... 2.500e-12
   Tpresel                                  ... 2.500e-12 
Coulomb Range Separation                    ... NOT USED
Exchange Range Separation                   ... NOT USED
Multipole approximations                    ... NOT USED
Finite Nucleus Model                        ... NOT USED
CABS basis                                  ... NOT available
Auxiliary Coulomb fitting basis             ... AVAILABLE
   # of basis functions in Aux-J            ...   1183
   # of shells in Aux-J                     ...    385
   Maximum angular momentum in Aux-J        ...      4
Auxiliary J/K fitting basis                 ... NOT available
Auxiliary Correlation fitting basis         ... NOT available
Auxiliary 'external' fitting basis          ... NOT available

Checking pre-screening integrals            ... done (  0.0 sec) Dimension = 154
   => SHARK Basis and OBASIS are compatible. Storing Pre-screening
Shell pair information
Shell pair cut-off parameter TPreSel        ...   2.5e-12
Total number of shell pairs                 ...     11935
Shell pairs after pre-screening             ...      8453
Total number of primitive shell pairs       ...     69489
Primitive shell pairs kept                  ...     27563
          la=0 lb=0:   2825 shell pairs
          la=1 lb=0:   2890 shell pairs
          la=1 lb=1:    746 shell pairs
          la=2 lb=0:   1200 shell pairs
          la=2 lb=1:    650 shell pairs
          la=2 lb=2:    142 shell pairs

Checking whether 4 symmetric matrices of dimension 322 fit in memory
:Max Core in MB      =   4096.00
 MB in use           =     15.14
 MB left             =   4080.86
 MB needed           =      1.59
 Data fit in memory  = YES
Calculating RI/J V-Matrix + Cholesky decomp.... done (  0.4 sec)
Calculating Nuclear repulsion               ... done (  0.0 sec) ENN=   1637.931342055677 Eh

Diagonalization of the overlap matrix:
Smallest eigenvalue                        ... 3.870e-04
Time for diagonalization                   ...    0.012 sec
Threshold for overlap eigenvalues          ... 1.000e-07
Number of eigenvalues below threshold      ... 0
Time for construction of square roots      ...    0.018 sec
Total time needed                          ...    0.045 sec

-------------------
DFT GRID GENERATION
-------------------

General Integration Accuracy     IntAcc      ... 4.388
Radial Grid Type                 RadialGrid  ... OptM3 with GC (2021)
Angular Grid (max. ang.)         AngularGrid ... 4 (Lebedev-302)
Angular grid pruning method      GridPruning ... 4 (adaptive)
Weight generation scheme         WeightScheme... mBecke (2022)
Basis function cutoff            BFCut       ... 1.0000e-11
Integration weight cutoff        WCut        ... 1.0000e-14
Partially contracted basis set               ... off
Rotationally invariant grid construction     ... off
Angular grids for H and He will be reduced by one unit

Total number of grid points                  ...   170359
Total number of batches                      ...     2679
Average number of points per batch           ...       63
Average number of grid points per atom       ...     4867

--------------------
COSX GRID GENERATION
--------------------

GRIDX 1
-------
General Integration Accuracy     IntAcc      ... 3.816
Radial Grid Type                 RadialGrid  ... OptM3 with GC (2021)
Angular Grid (max. ang.)         AngularGrid ... 1 (Lebedev-50)
Angular grid pruning method      GridPruning ... 4 (adaptive)
Weight generation scheme         WeightScheme... mBecke (2022)
Basis function cutoff            BFCut       ... 1.0000e-11
Integration weight cutoff        WCut        ... 1.0000e-14
Partially contracted basis set               ... on
Rotationally invariant grid construction     ... off
Angular grids for H and He will be reduced by one unit

Total number of grid points                  ...    21658
Total number of batches                      ...      189
Average number of points per batch           ...      114
Average number of grid points per atom       ...      619
UseSFitting                                  ... on

GRIDX 2
-------
General Integration Accuracy     IntAcc      ... 4.020
Radial Grid Type                 RadialGrid  ... OptM3 with GC (2021)
Angular Grid (max. ang.)         AngularGrid ... 2 (Lebedev-110)
Angular grid pruning method      GridPruning ... 4 (adaptive)
Weight generation scheme         WeightScheme... mBecke (2022)
Basis function cutoff            BFCut       ... 1.0000e-11
Integration weight cutoff        WCut        ... 1.0000e-14
Partially contracted basis set               ... on
Rotationally invariant grid construction     ... off
Angular grids for H and He will be reduced by one unit

Total number of grid points                  ...    47467
Total number of batches                      ...      390
Average number of points per batch           ...      121
Average number of grid points per atom       ...     1356
UseSFitting                                  ... on

GRIDX 3
-------
General Integration Accuracy     IntAcc      ... 4.338
Radial Grid Type                 RadialGrid  ... OptM3 with GC (2021)
Angular Grid (max. ang.)         AngularGrid ... 3 (Lebedev-194)
Angular grid pruning method      GridPruning ... 4 (adaptive)
Weight generation scheme         WeightScheme... mBecke (2022)
Basis function cutoff            BFCut       ... 1.0000e-11
Integration weight cutoff        WCut        ... 1.0000e-14
Partially contracted basis set               ... on
Rotationally invariant grid construction     ... off
Angular grids for H and He will be reduced by one unit

Total number of grid points                  ...   104044
Total number of batches                      ...      833
Average number of points per batch           ...      124
Average number of grid points per atom       ...     2973
UseSFitting                                  ... on
Grids setup in   7.6 sec
Initializing property integral containers    ... done (  0.0 sec)

SHARK setup successfully completed in   8.6 seconds

Maximum memory used throughout the entire STARTUP-calculation: 72.2 MB
-------------------------------------------------------------------------------
                                 ORCA GUESS
                   Start orbitals & Density for SCF / CASSCF
-------------------------------------------------------------------------------

------------
SCF SETTINGS
------------
Hamiltonian:
 Density Functional     Method          .... DFT(GTOs)
 Exchange Functional    Exchange        .... B88
   X-Alpha parameter    XAlpha          ....  0.666667
   Becke's b parameter  XBeta           ....  0.004200
 Correlation Functional Correlation     .... LYP
 LDA part of GGA corr.  LDAOpt          .... VWN-5
 Gradients option       PostSCFGGA      .... off
 Hybrid DFT is turned on
   Fraction HF Exchange ScalHFX         ....  0.200000
   Scaling of DF-GGA-X  ScalDFX         ....  0.720000
   Scaling of DF-GGA-C  ScalDFC         ....  0.810000
   Scaling of DF-LDA-C  ScalLDAC        ....  1.000000
   Perturbative correction              ....  0.000000
   NL short-range parameter             ....  4.800000
 RI-approximation to the Coulomb term is turned on
   Number of AuxJ basis functions       .... 1183
   RIJ-COSX (HFX calculated with COS-X)).... on


General Settings:
 Integral files         IntName         .... Inputs/Catechin_CPCM
 Hartree-Fock type      HFTyp           .... RHF
 Total Charge           Charge          ....    0
 Multiplicity           Mult            ....    1
 Number of Electrons    NEL             ....  152
 Basis Dimension        Dim             ....  322
 Nuclear Repulsion      ENuc            ....   1637.9313420557 Eh

Convergence Acceleration:
 AO-DIIS                CNVDIIS         .... on
   Start iteration      DIISMaxIt       ....    12
   Startup error        DIISStart       ....  0.200000
   # of expansion vecs  DIISMaxEq       ....     5
   Bias factor          DIISBfac        ....   1.050
   Max. coefficient     DIISMaxC        ....  10.000
 MO-DIIS                CNVKDIIS        .... off
 Trust-Rad. Augm. Hess. CNVTRAH         .... auto
   Auto Start mean grad. ratio tolernc. ....  1.125000
   Auto Start start iteration           ....    50
   Auto Start num. interpolation iter.  ....    10
   Max. Number of Micro iterations      ....    24
   Max. Number of Macro iterations      .... Maxiter - #DIIS iter
   Number of Davidson start vectors     ....     2
   Converg. threshold    (grad. norm)   ....   1.000e-05
   Grad. Scal. Fac. for Micro threshold ....   0.100
   Minimum threshold for Micro iter.    ....   1.000e-02
   NR start threshold (gradient norm)   ....   1.000e-04
   Initial trust radius                 ....   0.400
   Minimum AH scaling param. (alpha)    ....   1.000
   Maximum AH scaling param. (alpha)    .... 1000.000
   Quad. conv. algorithm                .... NR
   White noise on init. David. guess    .... on
   Maximum white noise                  ....   0.010
   Pseudo random numbers                .... off
   Inactive MOs                         .... canonical
   Orbital update algorithm             .... Taylor
   Preconditioner                       .... Diag
   Full preconditioner red. dimension   ....   250
 SOSCF                 CNVSOSCF           .... on
   Start iteration     SOSCFMaxIt         ....   150
   Startup grad/error  SOSCFStart         ....  0.003300
   Hessian update      SOSCFHessUp        .... L-BFGS
   Autom. constraints  SOSCFAutoConstrain .... off
 Level Shifting         CNVShift        .... on
   Level shift para.    LevelShift      ....    0.2500
   Turn off err/grad.   ShiftErr        ....    0.0010
 Zerner damping         CNVZerner       .... off
 Static damping         CNVDamp         .... on
   Fraction old density DampFac         ....    0.7000
   Max. Damping (<1)    DampMax         ....    0.9800
   Min. Damping (>=0)   DampMin         ....    0.0000
   Turn off err/grad.   DampErr         ....    0.1000

SCF Procedure:
 Maximum # iterations   MaxIter         ....   125
 SCF integral mode      SCFMode         .... Direct
   Integral package                     .... SHARK and LIBINT hybrid scheme
 Reset frequency        DirectResetFreq ....    20
 Integral Threshold     Thresh          ....  2.500e-11 Eh
 Primitive CutOff       TCut            ....  2.500e-12 Eh

Convergence Tolerance:
 Convergence Check Mode ConvCheckMode   .... Total+1el-Energy
 Convergence forced     ConvForced      .... 0
 Energy Change          TolE            ....  1.000e-08 Eh
 1-El. energy change                    ....  1.000e-05 Eh
 Orbital Gradient       TolG            ....  1.000e-05
 Orbital Rotation angle TolX            ....  1.000e-05
 DIIS Error             TolErr          ....  5.000e-07

------------------------------
INITIAL GUESS: MODEL POTENTIAL
------------------------------
Loading Hartree-Fock densities                     ... done
Calculating cut-offs                               ... done
Initializing the effective Hamiltonian             ... done
Setting up the integral package (SHARK)            ... done
Starting the Coulomb interaction                   ... done (   0.7 sec)
Making the grid                                    ... done (   1.1 sec)
Mapping shells                                     ... done
Starting the XC term evaluation                    ... done (   0.4 sec)
  promolecular density results
     # of electrons  =    152.002397657
     EX              =   -130.597102392
     EC              =     -5.281454225
     EX+EC           =   -135.878556617
Transforming the Hamiltonian                       ... done (   0.0 sec)
Diagonalizing the Hamiltonian                      ... done (   0.0 sec)
Back transforming the eigenvectors                 ... done (   0.0 sec)
Now organizing SCF variables                       ... done
                      ------------------
                      INITIAL GUESS DONE (   2.4 sec)
                      ------------------
             **** ENERGY FILE WAS UPDATED (Inputs/Catechin_CPCM.en.tmp) ****
Finished Guess after   2.9 sec
Maximum memory used throughout the entire GUESS-calculation: 25.1 MB

-------------------------------------------------------------------------------------------
                                      ORCA LEAN-SCF
                              memory conserving SCF solver
-------------------------------------------------------------------------------------------

--------------------
CPCM SOLVATION MODEL
--------------------
CPCM parameters:
  Epsilon                                         ...      80.1510
  Refrac                                          ...       1.3328
  Rsolv                                           ...       1.3000
  Surface type                                    ... GAUSSIAN VDW
  Discretization scheme                           ... Constant charge density
    Threshold for H atoms                         ...       5.0000 (charges/Ang^2)
    Threshold for non-H atoms                     ...       5.0000 (charges/Ang^2)
  Epsilon function type                           ...         CPCM
Solvent:                                          ... WATER
Radii:
  Scheme                                          ... Element-dependent radii
  Radius for O  used is    3.4469 Bohr (=   1.8240 Ang.)
  Radius for C  used is    3.8550 Bohr (=   2.0400 Ang.)
  Radius for H  used is    2.4944 Bohr (=   1.3200 Ang.)
Calculating surface                               ...        done! (  0.0s)
Cavity surface points                             ...         3003
Cavity Volume                                     ...    2162.8668
Cavity Surface-area                               ...    1121.5548
Calculating surface distance matrix               ...        done! (  0.1s)
Performing Cholesky decomposition & store         ...        done! (  0.8s)
Overall time for CPCM initialization              ...                 0.9s

----------------------------------------D-I-I-S--------------------------------------------
Iteration    Energy (Eh)           Delta-E    RMSDP     MaxDP     DIISErr   Damp  Time(sec)
-------------------------------------------------------------------------------------------
               ***  Starting incremental Fock matrix formation  ***
    1    -1030.2931301050211914     0.00e+00  2.32e-03  7.39e-02  2.39e-01  0.700  21.0
    2    -1030.5095594508620707    -2.16e-01  1.59e-03  4.24e-02  1.04e-01  0.700  13.5
                               ***Turning on AO-DIIS***
    3    -1030.6009685675771834    -9.14e-02  6.57e-04  2.00e-02  3.81e-02  0.700  12.8
    4    -1030.6553151642988269    -5.43e-02  1.11e-03  3.11e-02  2.03e-02  0.000  11.8
    5    -1030.7723820213877843    -1.17e-01  2.17e-04  6.92e-03  5.50e-03  0.000  13.8
                              *** Initializing SOSCF ***
---------------------------------------S-O-S-C-F--------------------------------------
Iteration    Energy (Eh)           Delta-E    RMSDP     MaxDP     MaxGrad    Time(sec)
--------------------------------------------------------------------------------------
    6    -1030.7729414128775716    -5.59e-04  6.37e-05  2.15e-03  1.69e-03    12.1
               *** Restarting incremental Fock matrix formation ***
    7    -1030.7728635160829072     7.79e-05  3.59e-05  1.04e-03  1.21e-04    22.7
    8    -1030.7728645199340463    -1.00e-06  1.40e-05  5.50e-04  1.98e-04    14.9
    9    -1030.7728663168013554    -1.80e-06  9.03e-06  3.13e-04  5.63e-05    15.1
   10    -1030.7728664190390191    -1.02e-07  2.21e-06  8.84e-05  2.83e-05    13.3
   11    -1030.7728665070535499    -8.80e-08  1.27e-06  3.68e-05  5.56e-06    13.5
   12    -1030.7728665272593389    -2.02e-08  4.15e-07  1.36e-05  4.39e-06    11.1
   13    -1030.7728665080726387     1.92e-08  3.16e-07  7.46e-06  1.89e-06     9.6
                  *** Gradient check signals convergence ***

               *****************************************************
               *                     SUCCESS                       *
               *           SCF CONVERGED AFTER  13 CYCLES          *
               *****************************************************

Recomputing exchange energy using gridx3       ... done (   29.459 sec)
Old exchange energy                            :    -26.475188508 Eh
New exchange energy                            :    -26.475209432 Eh
Exchange energy change after final integration :     -0.000020924 Eh
Total energy after final integration           :  -1030.772887428 Eh
             **** ENERGY FILE WAS UPDATED (Inputs/Catechin_CPCM.en.tmp) ****

----------------
TOTAL SCF ENERGY
----------------

Total Energy       :      -1030.77288742833707 Eh          -28048.75624 eV

Components:
Nuclear Repulsion  :       1637.93134205567731 Eh           44570.37773 eV
Electronic Energy  :      -2668.66095306006400 Eh          -72617.95636 eV
One Electron Energy:      -4663.69022666371984 Eh         -126905.46282 eV
Two Electron Energy:       1995.02927360365584 Eh           54287.50646 eV
CPCM Dielectric    :         -0.04325550030547 Eh              -1.17704 eV

Virial components:
Potential Energy   :      -2055.76920849080761 Eh          -55940.32411 eV
Kinetic Energy     :       1024.99632106247054 Eh           27891.56788 eV
Virial Ratio       :          2.00563569473096

DFT components:
N(Alpha)           :       75.999993422770 electrons
N(Beta)            :       75.999993422770 electrons
N(Total)           :      151.999986845541 electrons
E(X)               :     -105.230109986947 Eh       
E(C)               :       -6.210497410700 Eh       
E(XC)              :     -111.440607397647 Eh       

CPCM Solvation Model Properties:
Surface-charge          :         -0.01526995730293
Corrected charge        :         -0.00000000000000
Outlying charge corr.   :          0.00001264287811 Eh               0.00034 eV
Free-energy (cav+disp)  :  This term is not implemented in the current solvation scheme

---------------
SCF CONVERGENCE
---------------

  Last Energy change         ...   -1.9187e-08  Tolerance :   1.0000e-08
  Last MAX-Density change    ...    7.4613e-06  Tolerance :   1.0000e-07
  Last RMS-Density change    ...    3.1589e-07  Tolerance :   5.0000e-09
  Last DIIS Error            ...    1.6922e-03  Tolerance :   5.0000e-07
  Last Orbital Gradient      ...    1.8919e-06  Tolerance :   1.0000e-05
  Last Orbital Rotation      ...    6.1420e-06  Tolerance :   1.0000e-05


----------------
ORBITAL ENERGIES
----------------

  NO   OCC          E(Eh)            E(eV) 
   0   2.0000     -19.173379      -521.7342 
   1   2.0000     -19.167938      -521.5861 
   2   2.0000     -19.164980      -521.5056 
   3   2.0000     -19.164970      -521.5054 
   4   2.0000     -19.164926      -521.5042 
   5   2.0000     -19.135940      -520.7154 
   6   2.0000     -10.242412      -278.7102 
   7   2.0000     -10.240902      -278.6691 
   8   2.0000     -10.240462      -278.6571 
   9   2.0000     -10.240147      -278.6486 
  10   2.0000     -10.239732      -278.6373 
  11   2.0000     -10.239016      -278.6178 
  12   2.0000     -10.229151      -278.3493 
  13   2.0000     -10.184726      -277.1405 
  14   2.0000     -10.179268      -276.9920 
  15   2.0000     -10.178275      -276.9649 
  16   2.0000     -10.176274      -276.9105 
  17   2.0000     -10.174740      -276.8687 
  18   2.0000     -10.171041      -276.7681 
  19   2.0000     -10.164682      -276.5951 
  20   2.0000     -10.164017      -276.5770 
  21   2.0000      -1.065750       -29.0005 
  22   2.0000      -1.061715       -28.8907 
  23   2.0000      -1.054092       -28.6833 
  24   2.0000      -1.051606       -28.6157 
  25   2.0000      -1.042725       -28.3740 
  26   2.0000      -1.012870       -27.5616 
  27   2.0000      -0.850949       -23.1555 
  28   2.0000      -0.841534       -22.8993 
  29   2.0000      -0.792864       -21.5749 
  30   2.0000      -0.767562       -20.8864 
  31   2.0000      -0.737818       -20.0771 
  32   2.0000      -0.730717       -19.8838 
  33   2.0000      -0.716196       -19.4887 
  34   2.0000      -0.669627       -18.2215 
  35   2.0000      -0.634021       -17.2526 
  36   2.0000      -0.628639       -17.1061 
  37   2.0000      -0.614114       -16.7109 
  38   2.0000      -0.591334       -16.0910 
  39   2.0000      -0.578229       -15.7344 
  40   2.0000      -0.551740       -15.0136 
  41   2.0000      -0.540264       -14.7013 
  42   2.0000      -0.533221       -14.5097 
  43   2.0000      -0.512276       -13.9397 
  44   2.0000      -0.500186       -13.6108 
  45   2.0000      -0.490432       -13.3453 
  46   2.0000      -0.482394       -13.1266 
  47   2.0000      -0.474511       -12.9121 
  48   2.0000      -0.463304       -12.6071 
  49   2.0000      -0.449788       -12.2394 
  50   2.0000      -0.437529       -11.9058 
  51   2.0000      -0.434081       -11.8119 
  52   2.0000      -0.424521       -11.5518 
  53   2.0000      -0.423055       -11.5119 
  54   2.0000      -0.417094       -11.3497 
  55   2.0000      -0.401830       -10.9343 
  56   2.0000      -0.399087       -10.8597 
  57   2.0000      -0.390719       -10.6320 
  58   2.0000      -0.388793       -10.5796 
  59   2.0000      -0.375122       -10.2076 
  60   2.0000      -0.370518       -10.0823 
  61   2.0000      -0.364901        -9.9295 
  62   2.0000      -0.361272        -9.8307 
  63   2.0000      -0.360382        -9.8065 
  64   2.0000      -0.353301        -9.6138 
  65   2.0000      -0.347168        -9.4469 
  66   2.0000      -0.335984        -9.1426 
  67   2.0000      -0.331344        -9.0163 
  68   2.0000      -0.321208        -8.7405 
  69   2.0000      -0.304349        -8.2818 
  70   2.0000      -0.276638        -7.5277 
  71   2.0000      -0.264877        -7.2077 
  72   2.0000      -0.235169        -6.3993 
  73   2.0000      -0.212038        -5.7698 
  74   2.0000      -0.206618        -5.6224 
  75   2.0000      -0.205928        -5.6036 
  76   0.0000       0.000946         0.0257 
  77   0.0000       0.017075         0.4646 
  78   0.0000       0.019743         0.5372 
  79   0.0000       0.025406         0.6913 
  80   0.0000       0.085165         2.3175 
  81   0.0000       0.087202         2.3729 
  82   0.0000       0.092727         2.5232 
  83   0.0000       0.098363         2.6766 
  84   0.0000       0.103032         2.8036 
  85   0.0000       0.107696         2.9306 
  86   0.0000       0.116843         3.1794 
*Only the first 10 virtual orbitals were printed.

                    ********************************
                    * MULLIKEN POPULATION ANALYSIS *
                    ********************************

-----------------------
MULLIKEN ATOMIC CHARGES
-----------------------
   0 O :   -0.533284
   1 O :   -0.688965
   2 O :   -0.667899
   3 O :   -0.674590
   4 O :   -0.671990
   5 O :   -0.670525
   6 C :    0.134049
   7 C :    0.041207
   8 C :   -0.354233
   9 C :    0.020010
  10 C :    0.326892
  11 C :    0.128730
  12 C :    0.301206
  13 C :   -0.323335
  14 C :   -0.280983
  15 C :   -0.219245
  16 C :   -0.293591
  17 C :    0.369605
  18 C :    0.313422
  19 C :   -0.231942
  20 C :    0.312250
  21 H :    0.150102
  22 H :    0.158948
  23 H :    0.162403
  24 H :    0.160981
  25 H :    0.150246
  26 H :    0.166480
  27 H :    0.436930
  28 H :    0.149971
  29 H :    0.151825
  30 H :    0.166206
  31 H :    0.453649
  32 H :    0.450228
  33 H :    0.452542
  34 H :    0.452701
Sum of atomic charges:   -0.0000000

--------------------------------
MULLIKEN REDUCED ORBITAL CHARGES
--------------------------------
  0 O s       :     3.893572  s :     3.893572
      pz      :     1.785723  p :     4.609566
      px      :     1.303258
      py      :     1.520585
      dz2     :     0.004286  d :     0.030146
      dxz     :     0.004915
      dyz     :     0.003534
      dx2y2   :     0.009720
      dxy     :     0.007690

  1 O s       :     3.888427  s :     3.888427
      pz      :     1.684613  p :     4.775053
      px      :     1.783631
      py      :     1.306809
      dz2     :     0.003130  d :     0.025485
      dxz     :     0.004091
      dyz     :     0.009570
      dx2y2   :     0.002966
      dxy     :     0.005729

  2 O s       :     3.886375  s :     3.886375
      pz      :     1.842877  p :     4.753595
      px      :     1.361387
      py      :     1.549332
      dz2     :     0.004518  d :     0.027929
      dxz     :     0.000873
      dyz     :     0.004905
      dx2y2   :     0.012189
      dxy     :     0.005444

  3 O s       :     3.883450  s :     3.883450
      pz      :     1.846962  p :     4.762958
      px      :     1.637829
      py      :     1.278167
      dz2     :     0.004210  d :     0.028182
      dxz     :     0.003769
      dyz     :     0.002654
      dx2y2   :     0.003438
      dxy     :     0.014110

  4 O s       :     3.884321  s :     3.884321
      pz      :     1.315177  p :     4.759828
      px      :     1.630641
      py      :     1.814010
      dz2     :     0.002809  d :     0.027842
      dxz     :     0.012946
      dyz     :     0.003303
      dx2y2   :     0.005666
      dxy     :     0.003118

  5 O s       :     3.883963  s :     3.883963
      pz      :     1.581110  p :     4.758702
      px      :     1.345442
      py      :     1.832150
      dz2     :     0.008170  d :     0.027860
      dxz     :     0.007939
      dyz     :     0.002625
      dx2y2   :     0.004282
      dxy     :     0.004844

  6 C s       :     3.138755  s :     3.138755
      pz      :     0.998690  p :     2.659260
      px      :     0.885600
      py      :     0.774970
      dz2     :     0.015422  d :     0.067936
      dxz     :     0.006565
      dyz     :     0.013673
      dx2y2   :     0.016445
      dxy     :     0.015830

  7 C s       :     3.177128  s :     3.177128
      pz      :     1.014538  p :     2.714351
      px      :     0.921328
      py      :     0.778485
      dz2     :     0.015522  d :     0.067314
      dxz     :     0.006394
      dyz     :     0.013970
      dx2y2   :     0.014241
      dxy     :     0.017188

  8 C s       :     3.253234  s :     3.253234
      pz      :     1.075804  p :     3.060201
      px      :     0.956951
      py      :     1.027447
      dz2     :     0.007002  d :     0.040797
      dxz     :     0.005345
      dyz     :     0.012675
      dx2y2   :     0.007698
      dxy     :     0.008077

  9 C s       :     3.101664  s :     3.101664
      pz      :     1.111788  p :     2.840565
      px      :     0.884858
      py      :     0.843919
      dz2     :     0.003330  d :     0.037761
      dxz     :     0.005290
      dyz     :     0.006345
      dx2y2   :     0.012352
      dxy     :     0.010444

 10 C s       :     3.086950  s :     3.086950
      pz      :     0.960062  p :     2.514328
      px      :     0.670323
      py      :     0.883942
      dz2     :     0.005291  d :     0.071830
      dxz     :     0.015491
      dyz     :     0.009024
      dx2y2   :     0.022626
      dxy     :     0.019397

 11 C s       :     3.127672  s :     3.127672
      pz      :     0.853090  p :     2.704403
      px      :     0.878482
      py      :     0.972831
      dz2     :     0.009987  d :     0.039194
      dxz     :     0.011671
      dyz     :     0.006736
      dx2y2   :     0.005958
      dxy     :     0.004841

 12 C s       :     3.093184  s :     3.093184
      pz      :     0.949436  p :     2.533639
      px      :     0.871799
      py      :     0.712404
      dz2     :     0.005308  d :     0.071971
      dxz     :     0.009959
      dyz     :     0.014432
      dx2y2   :     0.021126
      dxy     :     0.021147

 13 C s       :     3.187910  s :     3.187910
      pz      :     1.150858  p :     3.103033
      px      :     0.964722
      py      :     0.987454
      dz2     :     0.003457  d :     0.032391
      dxz     :     0.005050
      dyz     :     0.003227
      dx2y2   :     0.009775
      dxy     :     0.010883

 14 C s       :     3.203235  s :     3.203235
      pz      :     1.026395  p :     3.043059
      px      :     0.962511
      py      :     1.054153
      dz2     :     0.008055  d :     0.034689
      dxz     :     0.011469
      dyz     :     0.003802
      dx2y2   :     0.005842
      dxy     :     0.005521

 15 C s       :     3.209556  s :     3.209556
      pz      :     0.990022  p :     2.973199
      px      :     0.961318
      py      :     1.021859
      dz2     :     0.008971  d :     0.036490
      dxz     :     0.010932
      dyz     :     0.004605
      dx2y2   :     0.005337
      dxy     :     0.006646

 16 C s       :     3.177635  s :     3.177635
      pz      :     1.153197  p :     3.083579
      px      :     0.941523
      py      :     0.988859
      dz2     :     0.003605  d :     0.032377
      dxz     :     0.002498
      dyz     :     0.005587
      dx2y2   :     0.011528
      dxy     :     0.009159

 17 C s       :     3.065823  s :     3.065823
      pz      :     0.944454  p :     2.491477
      px      :     0.814464
      py      :     0.732560
      dz2     :     0.005205  d :     0.073096
      dxz     :     0.011240
      dyz     :     0.013567
      dx2y2   :     0.019271
      dxy     :     0.023812

 18 C s       :     3.060621  s :     3.060621
      pz      :     0.703210  p :     2.556839
      px      :     0.882779
      py      :     0.970850
      dz2     :     0.016998  d :     0.069119
      dxz     :     0.021280
      dyz     :     0.013915
      dx2y2   :     0.008025
      dxy     :     0.008901

 19 C s       :     3.191804  s :     3.191804
      pz      :     0.957742  p :     3.005168
      px      :     1.005042
      py      :     1.042384
      dz2     :     0.007428  d :     0.034969
      dxz     :     0.012891
      dyz     :     0.004254
      dx2y2   :     0.005436
      dxy     :     0.004960

 20 C s       :     3.057623  s :     3.057623
      pz      :     0.919507  p :     2.560890
      px      :     0.658126
      py      :     0.983258
      dz2     :     0.013394  d :     0.069237
      dxz     :     0.019345
      dyz     :     0.006654
      dx2y2   :     0.013597
      dxy     :     0.016247

 21 H s       :     0.849898  s :     0.849898

 22 H s       :     0.841052  s :     0.841052

 23 H s       :     0.837597  s :     0.837597

 24 H s       :     0.839019  s :     0.839019

 25 H s       :     0.849754  s :     0.849754

 26 H s       :     0.833520  s :     0.833520

 27 H s       :     0.563070  s :     0.563070

 28 H s       :     0.850029  s :     0.850029

 29 H s       :     0.848175  s :     0.848175

 30 H s       :     0.833794  s :     0.833794

 31 H s       :     0.546351  s :     0.546351

 32 H s       :     0.549772  s :     0.549772

 33 H s       :     0.547458  s :     0.547458

 34 H s       :     0.547299  s :     0.547299



                     *******************************
                     * LOEWDIN POPULATION ANALYSIS *
                     *******************************

----------------------
LOEWDIN ATOMIC CHARGES
----------------------
   0 O :   -0.165817
   1 O :   -0.429751
   2 O :   -0.330293
   3 O :   -0.334245
   4 O :   -0.337186
   5 O :   -0.336554
   6 C :   -0.017791
   7 C :    0.007278
   8 C :   -0.236765
   9 C :   -0.114263
  10 C :    0.075701
  11 C :   -0.041695
  12 C :    0.077855
  13 C :   -0.236192
  14 C :   -0.170227
  15 C :   -0.151380
  16 C :   -0.235928
  17 C :    0.070919
  18 C :    0.039343
  19 C :   -0.175499
  20 C :    0.039903
  21 H :    0.123418
  22 H :    0.132753
  23 H :    0.136534
  24 H :    0.137999
  25 H :    0.146928
  26 H :    0.149005
  27 H :    0.337555
  28 H :    0.140660
  29 H :    0.147825
  30 H :    0.150445
  31 H :    0.350985
  32 H :    0.348617
  33 H :    0.349765
  34 H :    0.350099

-------------------------------
LOEWDIN REDUCED ORBITAL CHARGES
-------------------------------
  0 O s       :     3.467924  s :     3.467924
      pz      :     1.772914  p :     4.630215
      px      :     1.318191
      py      :     1.539109
      dz2     :     0.008293  d :     0.067678
      dxz     :     0.011360
      dyz     :     0.006447
      dx2y2   :     0.022626
      dxy     :     0.018952

  1 O s       :     3.561213  s :     3.561213
      pz      :     1.701290  p :     4.822151
      px      :     1.781393
      py      :     1.339469
      dz2     :     0.005218  d :     0.046386
      dxz     :     0.005114
      dyz     :     0.016955
      dx2y2   :     0.007413
      dxy     :     0.011687

  2 O s       :     3.520983  s :     3.520983
      pz      :     1.828906  p :     4.757960
      px      :     1.365262
      py      :     1.563792
      dz2     :     0.006799  d :     0.051349
      dxz     :     0.002261
      dyz     :     0.008193
      dx2y2   :     0.022733
      dxy     :     0.011363

  3 O s       :     3.521060  s :     3.521060
      pz      :     1.831615  p :     4.761511
      px      :     1.635503
      py      :     1.294393
      dz2     :     0.006393  d :     0.051673
      dxz     :     0.004826
      dyz     :     0.006326
      dx2y2   :     0.008320
      dxy     :     0.025808

  4 O s       :     3.518764  s :     3.518764
      pz      :     1.333495  p :     4.766537
      px      :     1.628922
      py      :     1.804120
      dz2     :     0.008661  d :     0.051886
      dxz     :     0.023593
      dyz     :     0.008240
      dx2y2   :     0.007215
      dxy     :     0.004177

  5 O s       :     3.518662  s :     3.518662
      pz      :     1.577404  p :     4.765993
      px      :     1.367836
      py      :     1.820753
      dz2     :     0.012836  d :     0.051899
      dxz     :     0.015882
      dyz     :     0.002922
      dx2y2   :     0.009842
      dxy     :     0.010417

  6 C s       :     2.896322  s :     2.896322
      pz      :     1.076936  p :     2.968491
      px      :     0.990971
      py      :     0.900584
      dz2     :     0.031968  d :     0.152978
      dxz     :     0.013346
      dyz     :     0.032123
      dx2y2   :     0.040201
      dxy     :     0.035341

  7 C s       :     2.897426  s :     2.897426
      pz      :     1.081342  p :     2.947164
      px      :     0.968538
      py      :     0.897284
      dz2     :     0.032168  d :     0.148132
      dxz     :     0.012437
      dyz     :     0.032583
      dx2y2   :     0.033959
      dxy     :     0.036984

  8 C s       :     2.927474  s :     2.927474
      pz      :     1.118152  p :     3.221730
      px      :     1.036974
      py      :     1.066604
      dz2     :     0.014051  d :     0.087561
      dxz     :     0.010395
      dyz     :     0.025208
      dx2y2   :     0.018837
      dxy     :     0.019070

  9 C s       :     2.861884  s :     2.861884
      pz      :     1.094307  p :     3.154954
      px      :     1.028232
      py      :     1.032416
      dz2     :     0.007274  d :     0.097425
      dxz     :     0.011199
      dyz     :     0.012595
      dx2y2   :     0.035046
      dxy     :     0.031309

 10 C s       :     2.845839  s :     2.845839
      pz      :     0.960080  p :     2.905795
      px      :     0.869440
      py      :     1.076274
      dz2     :     0.011840  d :     0.172666
      dxz     :     0.032900
      dyz     :     0.019655
      dx2y2   :     0.056416
      dxy     :     0.051854

 11 C s       :     2.878829  s :     2.878829
      pz      :     1.055989  p :     3.064057
      px      :     1.015857
      py      :     0.992211
      dz2     :     0.027123  d :     0.098810
      dxz     :     0.031483
      dyz     :     0.015856
      dx2y2   :     0.013914
      dxy     :     0.010433

 12 C s       :     2.848018  s :     2.848018
      pz      :     0.946851  p :     2.902168
      px      :     1.032481
      py      :     0.922836
      dz2     :     0.011777  d :     0.171958
      dxz     :     0.021725
      dyz     :     0.030974
      dx2y2   :     0.053255
      dxy     :     0.054228

 13 C s       :     2.911825  s :     2.911825
      pz      :     1.135088  p :     3.245291
      px      :     1.045178
      py      :     1.065024
      dz2     :     0.006739  d :     0.079077
      dxz     :     0.010652
      dyz     :     0.005871
      dx2y2   :     0.027045
      dxy     :     0.028769

 14 C s       :     2.916367  s :     2.916367
      pz      :     1.075277  p :     3.171476
      px      :     1.047036
      py      :     1.049164
      dz2     :     0.019624  d :     0.082384
      dxz     :     0.028051
      dyz     :     0.008219
      dx2y2   :     0.013899
      dxy     :     0.012590

 15 C s       :     2.917091  s :     2.917091
      pz      :     1.066412  p :     3.148861
      px      :     1.058574
      py      :     1.023874
      dz2     :     0.020244  d :     0.085428
      dxz     :     0.027769
      dyz     :     0.008314
      dx2y2   :     0.014075
      dxy     :     0.015027

 16 C s       :     2.910478  s :     2.910478
      pz      :     1.135213  p :     3.246082
      px      :     1.068831
      py      :     1.042038
      dz2     :     0.006981  d :     0.079368
      dxz     :     0.003920
      dyz     :     0.012438
      dx2y2   :     0.029275
      dxy     :     0.026754

 17 C s       :     2.846570  s :     2.846570
      pz      :     0.944302  p :     2.907346
      px      :     1.028544
      py      :     0.934500
      dz2     :     0.011804  d :     0.175165
      dxz     :     0.024364
      dyz     :     0.029290
      dx2y2   :     0.050698
      dxy     :     0.059009

 18 C s       :     2.847567  s :     2.847567
      pz      :     0.909166  p :     2.946045
      px      :     1.052215
      py      :     0.984663
      dz2     :     0.043975  d :     0.167045
      dxz     :     0.053137
      dyz     :     0.031044
      dx2y2   :     0.018935
      dxy     :     0.019955

 19 C s       :     2.917255  s :     2.917255
      pz      :     1.054998  p :     3.174405
      px      :     1.077374
      py      :     1.042033
      dz2     :     0.018625  d :     0.083839
      dxz     :     0.030819
      dyz     :     0.009168
      dx2y2   :     0.013393
      dxy     :     0.011834

 20 C s       :     2.847907  s :     2.847907
      pz      :     1.069426  p :     2.944921
      px      :     0.879830
      py      :     0.995665
      dz2     :     0.033379  d :     0.167269
      dxz     :     0.050491
      dyz     :     0.014895
      dx2y2   :     0.032921
      dxy     :     0.035583

 21 H s       :     0.876582  s :     0.876582

 22 H s       :     0.867247  s :     0.867247

 23 H s       :     0.863466  s :     0.863466

 24 H s       :     0.862001  s :     0.862001

 25 H s       :     0.853072  s :     0.853072

 26 H s       :     0.850995  s :     0.850995

 27 H s       :     0.662445  s :     0.662445

 28 H s       :     0.859340  s :     0.859340

 29 H s       :     0.852175  s :     0.852175

 30 H s       :     0.849555  s :     0.849555

 31 H s       :     0.649015  s :     0.649015

 32 H s       :     0.651383  s :     0.651383

 33 H s       :     0.650235  s :     0.650235

 34 H s       :     0.649901  s :     0.649901



                      *****************************
                      * MAYER POPULATION ANALYSIS *
                      *****************************

  NA   - Mulliken gross atomic population
  ZA   - Total nuclear charge
  QA   - Mulliken gross atomic charge
  VA   - Mayer's total valence
  BVA  - Mayer's bonded valence
  FA   - Mayer's free valence

  ATOM       NA         ZA         QA         VA         BVA        FA
  0 O      8.5333     8.0000    -0.5333     1.9468     1.9468    -0.0000
  1 O      8.6890     8.0000    -0.6890     1.7403     1.7403     0.0000
  2 O      8.6679     8.0000    -0.6679     1.8630     1.8630     0.0000
  3 O      8.6746     8.0000    -0.6746     1.8487     1.8487    -0.0000
  4 O      8.6720     8.0000    -0.6720     1.8393     1.8393    -0.0000
  5 O      8.6705     8.0000    -0.6705     1.8412     1.8412    -0.0000
  6 C      5.8660     6.0000     0.1340     3.7983     3.7983     0.0000
  7 C      5.9588     6.0000     0.0412     3.8003     3.8003    -0.0000
  8 C      6.3542     6.0000    -0.3542     3.8342     3.8342     0.0000
  9 C      5.9800     6.0000     0.0200     3.8267     3.8267     0.0000
 10 C      5.6731     6.0000     0.3269     3.8734     3.8734    -0.0000
 11 C      5.8713     6.0000     0.1287     3.9514     3.9514    -0.0000
 12 C      5.6988     6.0000     0.3012     3.8765     3.8765     0.0000
 13 C      6.3233     6.0000    -0.3233     3.8293     3.8293    -0.0000
 14 C      6.2810     6.0000    -0.2810     3.8886     3.8886    -0.0000
 15 C      6.2192     6.0000    -0.2192     3.9305     3.9305    -0.0000
 16 C      6.2936     6.0000    -0.2936     3.8257     3.8257    -0.0000
 17 C      5.6304     6.0000     0.3696     3.8704     3.8704    -0.0000
 18 C      5.6866     6.0000     0.3134     3.8385     3.8385     0.0000
 19 C      6.2319     6.0000    -0.2319     3.8989     3.8989    -0.0000
 20 C      5.6877     6.0000     0.3123     3.8520     3.8520    -0.0000
 21 H      0.8499     1.0000     0.1501     0.9272     0.9272    -0.0000
 22 H      0.8411     1.0000     0.1589     0.9283     0.9283    -0.0000
 23 H      0.8376     1.0000     0.1624     0.9304     0.9304     0.0000
 24 H      0.8390     1.0000     0.1610     0.9326     0.9326     0.0000
 25 H      0.8498     1.0000     0.1502     0.9399     0.9399    -0.0000
 26 H      0.8335     1.0000     0.1665     0.9363     0.9363    -0.0000
 27 H      0.5631     1.0000     0.4369     0.7789     0.7789    -0.0000
 28 H      0.8500     1.0000     0.1500     0.9369     0.9369    -0.0000
 29 H      0.8482     1.0000     0.1518     0.9387     0.9387    -0.0000
 30 H      0.8338     1.0000     0.1662     0.9316     0.9316    -0.0000
 31 H      0.5464     1.0000     0.4536     0.7691     0.7691    -0.0000
 32 H      0.5498     1.0000     0.4502     0.7714     0.7714    -0.0000
 33 H      0.5475     1.0000     0.4525     0.7706     0.7706     0.0000
 34 H      0.5473     1.0000     0.4527     0.7704     0.7704    -0.0000

  Mayer bond orders larger than 0.100000
B(  0-O ,  7-C ) :   0.8604 B(  0-O , 10-C ) :   0.9169 B(  1-O ,  6-C ) :   0.9061 
B(  1-O , 27-H ) :   0.7597 B(  2-O , 12-C ) :   0.9748 B(  2-O , 31-H ) :   0.7481 
B(  3-O , 17-C ) :   0.9470 B(  3-O , 32-H ) :   0.7524 B(  4-O , 18-C ) :   0.9615 
B(  4-O , 33-H ) :   0.7483 B(  5-O , 20-C ) :   0.9689 B(  5-O , 34-H ) :   0.7486 
B(  6-C ,  7-C ) :   0.9570 B(  6-C ,  8-C ) :   0.9814 B(  6-C , 21-H ) :   0.9141 
B(  7-C , 11-C ) :   0.9866 B(  7-C , 22-H ) :   0.9068 B(  8-C ,  9-C ) :   0.9619 
B(  8-C , 23-H ) :   0.9178 B(  8-C , 24-H ) :   0.9225 B(  9-C , 10-C ) :   1.3855 
B(  9-C , 12-C ) :   1.3545 B( 10-C , 13-C ) :   1.3598 B( 11-C , 14-C ) :   1.3903 
B( 11-C , 15-C ) :   1.4377 B( 12-C , 16-C ) :   1.3741 B( 13-C , 17-C ) :   1.3833 
B( 13-C , 25-H ) :   0.9072 B( 14-C , 18-C ) :   1.3990 B( 14-C , 26-H ) :   0.9043 
B( 15-C , 19-C ) :   1.4083 B( 15-C , 28-H ) :   0.9187 B( 16-C , 17-C ) :   1.3783 
B( 16-C , 29-H ) :   0.9080 B( 18-C , 20-C ) :   1.3386 B( 19-C , 20-C ) :   1.4104 
B( 19-C , 30-H ) :   0.9132 

-------
TIMINGS
-------

Total SCF time: 0 days 0 hours 3 min 49 sec 

Total time                  ....     229.549 sec
Sum of individual times     ....     216.997 sec  ( 94.5%)

SCF preparation             ....       2.237 sec  (  1.0%)
Fock matrix formation       ....     210.684 sec  ( 91.8%)
  Startup                   ....       0.246 sec  (  0.1% of F)
  Split-RI-J                ....      19.847 sec  (  9.4% of F)
  Chain of spheres X        ....     124.855 sec  ( 59.3% of F)
  XC integration            ....      42.738 sec  ( 20.3% of F)
    XC Preparation          ....       0.000 sec  (  0.0% of XC)
    Basis function eval.    ....       7.060 sec  ( 16.5% of XC)
    Density eval.           ....       5.623 sec  ( 13.2% of XC)
    XC-Functional eval.     ....       0.956 sec  (  2.2% of XC)
    XC-Potential eval.      ....       4.714 sec  ( 11.0% of XC)
  CPCM terms                ....      30.176 sec  ( 14.3% of F)
Diagonalization             ....       0.000 sec  (  0.0%)
Density matrix formation    ....       0.840 sec  (  0.4%)
Total Energy calculation    ....       0.405 sec  (  0.2%)
Population analysis         ....       0.448 sec  (  0.2%)
Orbital Transformation      ....       0.151 sec  (  0.1%)
Orbital Orthonormalization  ....       0.000 sec  (  0.0%)
DIIS solution               ....       1.260 sec  (  0.5%)
SOSCF solution              ....       0.971 sec  (  0.4%)
Finished LeanSCF after 231.9 sec

Maximum memory used throughout the entire LEANSCF-calculation: 91.7 MB

------------------------------------------------------------------------------
                         ORCA PROPERTY INTEGRAL CALCULATIONS
------------------------------------------------------------------------------

GBWName                                   ... Inputs/Catechin_CPCM.gbw
Number of atoms                           ...     35
Number of basis functions                 ...    322
Max core memory                           ...   4096 MB

Dipole integrals                          ... YES
Quadrupole integrals                      ...  NO
Linear momentum integrals                 ...  NO
Angular momentum integrals                ...  NO
Higher moments length integrals           ...  NO
Higher moments velocity integrals         ...  NO
Kinetic energy integrals                  ...  NO
GIAO right hand sides                     ...  NO
GIAO dipole derivative integrals          ...  NO
SOC integrals                             ...  NO
EPR diamagnetic integrals (GIAO)          ...  NO
EPR gauge integrals                       ...  NO
Field gradient integrals                  ...  NO (   0 nuclei)
Spin-dipole/Fermi contact integrals       ...  NO (   0 nuclei)
Contact density integrals                 ...  NO (   0 nuclei)
Nucleus-orbit integrals                   ...  NO (   0 nuclei)
Geometric perturbations                   ...  NO (  35 nuclei)

Choice of electric origin   ... Center of mass
Position of electric origin ... ( -0.0155, -0.0165,  0.0514) 
Choice of magnetic origin   ... GIAO
Position of magnetic origin ... (  0.0000,  0.0000,  0.0000) 

Calculating integrals                     ... Electric Dipole (Length)     done (  0.1 sec)

Property integrals calculated in   0.1 sec

Maximum memory used throughout the entire PROPINT-calculation: 25.9 MB

-------------------------   --------------------
FINAL SINGLE POINT ENERGY     -1030.772887428337
-------------------------   --------------------

------------------------------------------------------------------------------
                         ORCA SCF GRADIENT CALCULATION
------------------------------------------------------------------------------

Nuc. rep. gradient        (SHARK) ... done (  0.0 sec)
HCore & Overlap gradient  (SHARK) ... done (  1.1 sec)
Split-RIJ-J gradient      (SHARK) ... done (  5.0 sec)
COSX-gradient                     ... done ( 73.6 sec)
XC gradient                       ... done ( 16.5 sec)
CPCM gradient                     ... done (  6.3 sec)

------------------
CARTESIAN GRADIENT
------------------

   1   O   :   -0.004075544    0.009554677   -0.004695572
   2   O   :    0.008109697   -0.007359957    0.006201385
   3   O   :    0.005300633    0.002515227    0.000506280
   4   O   :   -0.002793273   -0.002031302    0.000031823
   5   O   :    0.011578463   -0.002096911    0.002231610
   6   O   :    0.001294986   -0.003715230   -0.011581941
   7   C   :   -0.012261435    0.008949415   -0.000941439
   8   C   :    0.025963288    0.003921862    0.001175924
   9   C   :   -0.003495118    0.002348474   -0.003653886
  10   C   :    0.003992640    0.005977423   -0.000441371
  11   C   :   -0.011163404   -0.007289689   -0.003141804
  12   C   :    0.001760400    0.000906569    0.006299014
  13   C   :   -0.007768174   -0.006561245   -0.000165395
  14   C   :    0.004714292   -0.003330835    0.001466299
  15   C   :   -0.002826319    0.004811321    0.013847870
  16   C   :   -0.003721296    0.000471960   -0.002318280
  17   C   :   -0.005466778    0.001353344   -0.000653260
  18   C   :    0.003629329   -0.006027292    0.000564214
  19   C   :   -0.014381342   -0.001778365   -0.016025327
  20   C   :   -0.014405306    0.003526010   -0.000980515
  21   C   :    0.015091968    0.001278920    0.015443910
  22   H   :    0.000214085   -0.006436358    0.000456149
  23   H   :   -0.001635875    0.002915732   -0.001478857
  24   H   :    0.004373083    0.002653456    0.000496292
  25   H   :   -0.001658295    0.000657771    0.000536939
  26   H   :   -0.000059632   -0.001198448    0.000369077
  27   H   :    0.001392187   -0.000917909   -0.002270633
  28   H   :   -0.000934557   -0.002839346    0.000702307
  29   H   :   -0.000988852   -0.000488440   -0.001024723
  30   H   :   -0.001359937    0.001484391   -0.000221250
  31   H   :    0.003680363   -0.001054057   -0.000812251
  32   H   :    0.000001615    0.000528339   -0.000382645
  33   H   :   -0.000845919   -0.001206789   -0.000042702
  34   H   :   -0.002224928   -0.000013873   -0.001696881
  35   H   :    0.000968953    0.000491153    0.002199640

Difference to translation invariance:
           :   -0.0000000001    0.0000000000    0.0000000001

Difference to rotation invariance:
           :    0.0004272942   -0.0014135486   -0.0002130350

Norm of the Cartesian gradient     ...    0.0602095296
RMS gradient                       ...    0.0058758484
MAX gradient                       ...    0.0259632883

-------
TIMINGS
-------

Total SCF gradient time     ....      102.576 sec

Densities                   ....       0.003 sec  (  0.0%)
One electron gradient       ....       1.051 sec  (  1.0%)
RI-J Coulomb gradient       ....       4.973 sec  (  4.8%)
COSX gradient               ....      73.643 sec  ( 71.8%)
XC gradient                 ....      16.541 sec  ( 16.1%)
CPCM gradient               ....       6.317 sec  (  6.2%)
   A-Matrix (El+Nuc)        ....       0.177 sec  (  0.2%)
   Potential                ....       6.141 sec  (  6.0%)

Maximum memory used throughout the entire SCFGRAD-calculation: 56.8 MB
------------------------------------------------------------------------------
                         ORCA GEOMETRY RELAXATION STEP
------------------------------------------------------------------------------

Reading the OPT-File                    .... done
Getting information on internals        .... done
Copying old internal coords+grads       .... done
Making the new internal coordinates     .... (2022 redundants) done
Validating the new internal coordinates .... (2022 redundants) done
Calculating the B-matrix                .... done
Calculating the G,G- and P matrices     .... done
Transforming gradient to internals      .... done
Projecting the internal gradient        .... done
Number of atoms                         ....  35
Number of internal coordinates          .... 183
Current Energy                          .... -1030.772887428 Eh
Current gradient norm                   ....     0.060209530 Eh/bohr
Maximum allowed component of the step   ....  0.300
Current trust radius                    ....  0.300
Evaluating the initial hessian          ....  (Almloef) done
Projecting the Hessian                  .... done
Forming the augmented Hessian           .... done
Diagonalizing the augmented Hessian     .... done
Last element of RFO vector              ....  0.984289041
Lowest eigenvalues of augmented Hessian:
 -0.007454276  0.010974608  0.015048462  0.018200974  0.019454843
Length of the computed step             ....  0.179382949
The final length of the internal step   ....  0.179382949
Converting the step to Cartesian space:
 Initial RMS(Int)=    0.0132603692
Transforming coordinates:
 Iter   0:  RMS(Cart)=    0.0456396806 RMS(Int)=    1.5379010564
 Iter   5:  RMS(Cart)=    0.0000000067 RMS(Int)=    0.0000000034
done
Storing new coordinates                 .... done

                                .--------------------.
          ----------------------|Geometry convergence|-------------------------
          Item                value                   Tolerance       Converged
          ---------------------------------------------------------------------
          RMS gradient        0.0037967077            0.0001000000      NO
          MAX gradient        0.0144707186            0.0003000000      NO
          RMS step            0.0132603692            0.0020000000      NO
          MAX step            0.0551122846            0.0040000000      NO
          -------------------------------------------------------------------------
          ........................................................
          Max(Bonds)      0.0111      Max(Angles)    3.16
          Max(Dihed)        2.48      Max(Improp)    0.00
          ---------------------------------------------------------------------

The optimization has not yet converged - more geometry cycles are needed


    ---------------------------------------------------------------------------
                         Redundant Internal Coordinates
                            (Angstroem and degrees)

        Definition                    Value    dE/dq     Step     New-Value
    ----------------------------------------------------------------------------
     1. B(C   6,O   1)                1.4316  0.003261 -0.0035    1.4281   
     2. B(C   7,O   0)                1.4377 -0.005380  0.0063    1.4439   
     3. B(C   7,C   6)                1.5418  0.006063 -0.0085    1.5333   
     4. B(C   8,C   6)                1.5270 -0.005171  0.0067    1.5337   
     5. B(C   9,C   8)                1.4991 -0.009297  0.0111    1.5103   
     6. B(C  10,C   9)                1.3982 -0.001912  0.0014    1.3996   
     7. B(C  10,O   0)                1.3675 -0.005590  0.0050    1.3725   
     8. B(C  11,C   7)                1.5231  0.003349 -0.0045    1.5185   
     9. B(C  12,C   9)                1.4006 -0.003846  0.0032    1.4038   
    10. B(C  12,O   2)                1.3674 -0.000288  0.0002    1.3676   
    11. B(C  13,C  10)                1.3969 -0.005274  0.0045    1.4013   
    12. B(C  14,C  11)                1.4063  0.002554 -0.0025    1.4038   
    13. B(C  15,C  11)                1.4049  0.006366 -0.0059    1.3990   
    14. B(C  16,C  12)                1.3934 -0.005181  0.0044    1.3978   
    15. B(C  17,O   3)                1.3641 -0.004720  0.0040    1.3682   
    16. B(C  17,C  16)                1.3888 -0.009555  0.0082    1.3970   
    17. B(C  17,C  13)                1.3904 -0.005218  0.0045    1.3949   
    18. B(C  18,C  14)                1.3949 -0.002048  0.0018    1.3967   
    19. B(C  18,O   4)                1.3671 -0.003674  0.0032    1.3703   
    20. B(C  19,C  15)                1.3979 -0.001206  0.0010    1.3988   
    21. B(C  20,C  19)                1.3923 -0.005161  0.0046    1.3968   
    22. B(C  20,C  18)                1.3938 -0.008351  0.0074    1.4012   
    23. B(C  20,O   5)                1.3668 -0.003846  0.0033    1.3701   
    24. B(H  21,C   6)                1.0974 -0.001051  0.0016    1.0989   
    25. B(H  22,C   7)                1.0993  0.000438 -0.0007    1.0986   
    26. B(H  23,C   8)                1.0978 -0.001144  0.0017    1.0995   
    27. B(H  24,C   8)                1.0971 -0.000511  0.0008    1.0979   
    28. B(H  25,C  13)                1.0854 -0.001067  0.0015    1.0869   
    29. B(H  26,C  14)                1.0862 -0.001024  0.0015    1.0876   
    30. B(H  27,O   1)                0.9731  0.002220 -0.0023    0.9708   
    31. B(H  28,C  15)                1.0882  0.000723 -0.0010    1.0871   
    32. B(H  29,C  16)                1.0850 -0.001395  0.0020    1.0870   
    33. B(H  30,C  19)                1.0853 -0.001444  0.0020    1.0873   
    34. B(H  31,O   2)                0.9723  0.000057 -0.0001    0.9722   
    35. B(H  32,O   3)                0.9721 -0.000432  0.0005    0.9726   
    36. B(H  33,O   4)                0.9689 -0.002780  0.0029    0.9718   
    37. B(H  34,O   5)                0.9690 -0.002453  0.0025    0.9716   
    38. A(C   7,O   0,C  10)          115.52 -0.012432    1.81    117.33   
    39. A(C   6,O   1,H  27)          107.41  0.003875   -0.62    106.79   
    40. A(C  12,O   2,H  31)          108.60 -0.001049    0.16    108.76   
    41. A(C  17,O   3,H  32)          108.60 -0.002583    0.40    109.00   
    42. A(C  18,O   4,H  33)          108.91  0.000474   -0.07    108.84   
    43. A(C  20,O   5,H  34)          108.87  0.000357   -0.05    108.81   
    44. A(O   1,C   6,C   8)          108.68 -0.008788    2.21    110.89   
    45. A(C   8,C   6,H  21)          109.32  0.002892    0.27    109.58   
    46. A(C   7,C   6,C   8)          108.87 -0.006225    0.82    109.69   
    47. A(O   1,C   6,C   7)          111.33  0.014471   -3.16    108.18   
    48. A(C   7,C   6,H  21)          110.27  0.001888   -1.13    109.14   
    49. A(O   1,C   6,H  21)          108.34 -0.004451    1.07    109.41   
    50. A(C   6,C   7,C  11)          112.42 -0.004888    0.97    113.39   
    51. A(C  11,C   7,H  22)          108.30 -0.000573    0.44    108.74   
    52. A(C   6,C   7,H  22)          109.59  0.001808   -0.75    108.84   
    53. A(O   0,C   7,C  11)          106.16 -0.003717    0.95    107.11   
    54. A(O   0,C   7,H  22)          107.92 -0.001613    0.34    108.26   
    55. A(O   0,C   7,C   6)          112.25  0.008677   -1.86    110.39   
    56. A(C   6,C   8,C   9)          112.01  0.001583   -0.43    111.58   
    57. A(C   9,C   8,H  24)          110.83  0.000387    0.04    110.87   
    58. A(C   6,C   8,H  24)          108.45 -0.002340    0.58    109.03   
    59. A(C   9,C   8,H  23)          108.87 -0.004347    1.00    109.87   
    60. A(C   6,C   8,H  23)          109.94  0.003723   -1.02    108.92   
    61. A(H  23,C   8,H  24)          106.59  0.001053   -0.18    106.41   
    62. A(C   8,C   9,C  10)          120.69 -0.000107   -0.08    120.61   
    63. A(C  10,C   9,C  12)          118.51  0.004835   -0.65    117.86   
    64. A(C   8,C   9,C  12)          120.77 -0.004743    0.76    121.53   
    65. A(C   9,C  10,C  13)          120.72 -0.005851    0.74    121.46   
    66. A(O   0,C  10,C  13)          115.49 -0.001880    0.30    115.79   
    67. A(O   0,C  10,C   9)          123.77  0.007709   -1.03    122.74   
    68. A(C  14,C  11,C  15)          118.73 -0.000971    0.04    118.78   
    69. A(C   7,C  11,C  15)          120.13 -0.001498    0.26    120.39   
    70. A(C   7,C  11,C  14)          121.14  0.002469   -0.30    120.84   
    71. A(O   2,C  12,C   9)          118.62  0.010139   -1.32    117.30   
    72. A(C   9,C  12,C  16)          121.23 -0.003439    0.43    121.66   
    73. A(O   2,C  12,C  16)          120.15 -0.006699    0.89    121.04   
    74. A(C  17,C  13,H  25)          121.31 -0.000238    0.02    121.32   
    75. A(C  10,C  13,H  25)          119.16 -0.001506    0.22    119.38   
    76. A(C  10,C  13,C  17)          119.53  0.001744   -0.24    119.29   
    77. A(C  11,C  14,C  18)          120.30 -0.004293    0.56    120.86   
    78. A(C  11,C  14,H  26)          119.49 -0.000543    0.15    119.64   
    79. A(C  18,C  14,H  26)          120.21  0.004837   -0.71    119.51   
    80. A(C  11,C  15,C  19)          120.79  0.000838   -0.18    120.61   
    81. A(C  19,C  15,H  28)          118.95 -0.001723    0.30    119.25   
    82. A(C  11,C  15,H  28)          120.25  0.000885   -0.12    120.14   
    83. A(C  17,C  16,H  29)          119.20 -0.001837    0.27    119.47   
    84. A(C  12,C  16,H  29)          121.63  0.001174   -0.21    121.42   
    85. A(C  12,C  16,C  17)          119.17  0.000663   -0.06    119.11   
    86. A(C  13,C  17,C  16)          120.83  0.002043   -0.22    120.61   
    87. A(O   3,C  17,C  16)          117.76  0.001822   -0.26    117.50   
    88. A(O   3,C  17,C  13)          121.41 -0.003864    0.48    121.89   
    89. A(C  14,C  18,C  20)          120.30  0.003310   -0.39    119.91   
    90. A(O   4,C  18,C  20)          119.38  0.009573   -1.28    118.10   
    91. A(O   4,C  18,C  14)          120.32 -0.012883    1.67    121.99   
    92. A(C  20,C  19,H  30)          121.15  0.005611   -0.86    120.29   
    93. A(C  15,C  19,H  30)          119.12 -0.001839    0.32    119.44   
    94. A(C  15,C  19,C  20)          119.73 -0.003773    0.54    120.27   
    95. A(O   5,C  20,C  18)          119.46  0.009521   -1.28    118.18   
    96. A(C  18,C  20,C  19)          120.15  0.004888   -0.57    119.58   
    97. A(O   5,C  20,C  19)          120.39 -0.014409    1.85    122.24   
    98. D(C   8,C   6,O   1,H  27)     65.96  0.000298    0.24     66.20   
    99. D(H  21,C   6,O   1,H  27)    -52.71  0.004305   -1.93    -54.65   
   100. D(C   7,C   6,O   1,H  27)   -174.13 -0.004177    0.74   -173.39   
   101. D(O   0,C   7,C   6,O   1)   -179.43  0.002922   -1.88   -181.31   
   102. D(C  11,C   7,O   0,C  10)    169.61 -0.000944    0.93    170.54   
   103. D(H  22,C   7,O   0,C  10)    -74.46 -0.004239    2.08    -72.38   
   104. D(C  11,C   7,C   6,O   1)     60.96  0.005033   -2.48     58.48   
   105. D(O   0,C   7,C   6,C   8)    -59.64 -0.003046   -0.56    -60.20   
   106. D(C  11,C   7,C   6,H  21)    -59.33 -0.000119   -1.00    -60.33   
   107. D(C  11,C   7,C   6,C   8)   -179.25 -0.000935   -1.16   -180.41   
   108. D(C   6,C   7,O   0,C  10)     46.41  0.002325    0.21     46.62   
   109. D(O   0,C   7,C   6,H  21)     60.28 -0.002230   -0.40     59.88   
   110. D(C   9,C   8,C   6,H  21)    -77.40 -0.004038    1.78    -75.62   
   111. D(C   9,C   8,C   6,O   1)    164.54  0.004743   -0.93    163.61   
   112. D(C   9,C   8,C   6,C   7)     43.12 -0.003777    1.07     44.19   
   113. D(H  23,C   8,C   6,O   1)     43.36  0.006624   -1.21     42.15   
   114. D(H  23,C   8,C   6,C   7)    -78.07 -0.001897    0.79    -77.27   
   115. D(H  23,C   8,C   6,H  21)    161.42 -0.002157    1.51    162.92   
   116. D(C  12,C   9,C   8,C   6)    165.12 -0.000527   -0.35    164.76   
   117. D(C  10,C   9,C   8,H  23)    105.10  0.001705   -0.18    104.92   
   118. D(C  10,C   9,C   8,H  24)   -137.97  0.000598    0.23   -137.74   
   119. D(C  12,C   9,C   8,H  23)    -73.08  0.002211   -1.23    -74.31   
   120. D(C  10,C   9,C   8,C   6)    -16.70 -0.001034    0.70    -16.00   
   121. D(C  13,C  10,C   9,C  12)     -1.56 -0.000213    0.54     -1.01   
   122. D(C  13,C  10,C   9,C   8)   -179.78  0.000451   -0.51   -180.29   
   123. D(O   0,C  10,C   9,C  12)   -179.66  0.000675   -0.18   -179.84   
   124. D(O   0,C  10,C   9,C   8)      2.11  0.001339   -1.23      0.88   
   125. D(C  13,C  10,O   0,C   7)    164.44  0.000468   -0.29    164.15   
   126. D(C   9,C  10,O   0,C   7)    -17.36 -0.000459    0.40    -16.96   
   127. D(C  14,C  11,C   7,C   6)     64.12  0.002047    0.43     64.56   
   128. D(C  14,C  11,C   7,O   0)    -58.97 -0.003212    1.50    -57.47   
   129. D(C  15,C  11,C   7,C   6)   -116.39  0.001966    0.91   -115.48   
   130. D(C  15,C  11,C   7,O   0)    120.51 -0.003292    1.97    122.49   
   131. D(C  14,C  11,C   7,H  22)   -174.65  0.000813    0.41   -174.24   
   132. D(C  16,C  12,C   9,C  10)      0.99  0.000040   -0.20      0.78   
   133. D(C  16,C  12,C   9,C   8)    179.21 -0.000539    0.84    180.05   
   134. D(O   2,C  12,C   9,C  10)   -179.12  0.000238   -0.46   -179.57   
   135. D(O   2,C  12,C   9,C   8)     -0.89 -0.000341    0.58     -0.31   
   136. D(C  16,C  12,O   2,H  31)     -0.59 -0.000180    0.34     -0.25   
   137. D(C   9,C  12,O   2,H  31)    179.51 -0.000380    0.59    180.10   
   138. D(H  25,C  13,C  10,C   9)   -179.23  0.000287   -0.47   -179.70   
   139. D(C  17,C  13,C  10,O   0)    179.57 -0.000312   -0.02    179.56   
   140. D(C  17,C  13,C  10,C   9)      1.32  0.000322   -0.65      0.66   
   141. D(H  25,C  13,C  10,O   0)     -0.97 -0.000347    0.17     -0.81   
   142. D(H  26,C  14,C  11,C  15)   -178.96 -0.000041   -0.08   -179.04   
   143. D(H  26,C  14,C  11,C   7)      0.53 -0.000124    0.39      0.92   
   144. D(C  18,C  14,C  11,C  15)      0.62  0.000028   -0.22      0.41   
   145. D(C  18,C  14,C  11,C   7)   -179.88 -0.000055    0.26   -179.63   
   146. D(H  28,C  15,C  11,C  14)    179.93  0.000159   -0.14    179.78   
   147. D(H  28,C  15,C  11,C   7)      0.43  0.000220   -0.61     -0.18   
   148. D(C  19,C  15,C  11,C  14)     -0.29  0.000192   -0.21     -0.49   
   149. D(C  19,C  15,C  11,C   7)   -179.78  0.000254   -0.67   -180.45   
   150. D(H  29,C  16,C  12,C   9)    179.85  0.000076   -0.05    179.80   
   151. D(H  29,C  16,C  12,O   2)     -0.05 -0.000142    0.22      0.17   
   152. D(C  17,C  16,C  12,C   9)     -0.17  0.000090   -0.04     -0.21   
   153. D(C  17,C  16,C  12,O   2)    179.93 -0.000128    0.22    180.16   
   154. D(C  16,C  17,C  13,H  25)   -179.92 -0.000298    0.24   -179.68   
   155. D(C  16,C  17,C  13,C  10)     -0.47 -0.000341    0.43     -0.05   
   156. D(O   3,C  17,C  13,H  25)     -0.07 -0.000165    0.15      0.08   
   157. D(O   3,C  17,C  13,C  10)    179.38 -0.000207    0.33    179.71   
   158. D(C  16,C  17,O   3,H  32)    178.82 -0.000034    0.12    178.94   
   159. D(O   3,C  17,C  16,C  12)   -179.95 -0.000043    0.01   -179.93   
   160. D(C  13,C  17,O   3,H  32)     -1.03 -0.000164    0.21     -0.83   
   161. D(C  13,C  17,C  16,H  29)    179.89  0.000091   -0.07    179.82   
   162. D(C  13,C  17,C  16,C  12)     -0.09  0.000077   -0.08     -0.17   
   163. D(O   3,C  17,C  16,H  29)      0.03 -0.000029    0.02      0.06   
   164. D(C  20,C  18,C  14,H  26)    179.06 -0.000152    0.26    179.32   
   165. D(C  20,C  18,C  14,C  11)     -0.53 -0.000199    0.40     -0.13   
   166. D(O   4,C  18,C  14,H  26)     -0.94 -0.000169    0.29     -0.65   
   167. D(O   4,C  18,C  14,C  11)    179.48 -0.000216    0.43    179.90   
   168. D(C  20,C  18,O   4,H  33)    179.45 -0.000001    0.00    179.45   
   169. D(C  14,C  18,O   4,H  33)     -0.56  0.000016   -0.03     -0.58   
   170. D(H  30,C  19,C  15,H  28)     -0.24 -0.000029    0.03     -0.21   
   171. D(H  30,C  19,C  15,C  11)    179.97 -0.000067    0.09    180.06   
   172. D(C  20,C  19,C  15,H  28)    179.64 -0.000251    0.39    180.03   
   173. D(C  20,C  19,C  15,C  11)     -0.15 -0.000289    0.45      0.30   
   174. D(C  18,C  20,C  19,H  30)   -179.86 -0.000082    0.09   -179.77   
   175. D(C  18,C  20,C  19,C  15)      0.26  0.000154   -0.27     -0.01   
   176. D(O   5,C  20,C  19,H  30)     -0.01 -0.000071    0.12      0.12   
   177. D(O   5,C  20,C  19,C  15)   -179.88  0.000165   -0.24   -180.13   
   178. D(C  19,C  20,C  18,C  14)      0.08  0.000103   -0.15     -0.07   
   179. D(C  19,C  20,C  18,O   4)   -179.92  0.000120   -0.18   -180.10   
   180. D(O   5,C  20,C  18,C  14)   -179.78  0.000127   -0.19   -179.96   
   181. D(O   5,C  20,C  18,O   4)      0.22  0.000144   -0.21      0.01   
   182. D(C  19,C  20,O   5,H  34)      0.30 -0.000016    0.01      0.30   
   183. D(C  18,C  20,O   5,H  34)   -179.85 -0.000011    0.04   -179.81   
    ----------------------------------------------------------------------------

Geometry step timings:
Preparation and reading OPT file:      0.004 s ( 3.172 %)
Internal coordinates            :      0.002 s ( 1.526 %)
B/P matrices and projection     :      0.006 s ( 5.289 %)
Hessian update/contruction      :      0.017 s (14.272 %)
Making the step                 :      0.008 s ( 6.617 %)
Converting the step to Cartesian:      0.003 s ( 2.452 %)
Storing new data                :      0.005 s ( 4.494 %)
Checking convergence            :      0.004 s ( 3.403 %)
Final printing                  :      0.069 s (58.775 %)
Total time                      :      0.117 s

Time for energy+gradient        :    347.288 s
Time for complete geometry iter :    348.060 s

         *************************************************************
         *                GEOMETRY OPTIMIZATION CYCLE   2            *
         *************************************************************
---------------------------------
CARTESIAN COORDINATES (ANGSTROEM)
---------------------------------
  O      0.425045    0.651455   -0.271008
  O     -0.693041   -2.838659   -0.002846
  O      4.401522   -1.955416    0.375351
  O      4.680756    2.786200   -0.076650
  O     -4.188467    1.128521    2.055093
  O     -5.850710    0.786156   -0.036459
  C      0.101925   -1.698138    0.323630
  C     -0.330365   -0.539058   -0.582316
  C      1.592419   -1.991501    0.112452
  C      2.406803   -0.720607    0.062171
  C      1.784117    0.517472   -0.133862
  C     -1.800553   -0.183774   -0.446979
  C      3.804306   -0.738659    0.193239
  C      2.521625    1.708207   -0.177646
  C     -2.311258    0.318818    0.760226
  C     -2.671779   -0.352058   -1.528612
  C      4.560610    0.436008    0.148147
  C      3.908458    1.657575   -0.036354
  C     -3.664894    0.638489    0.887475
  C     -4.028736   -0.035173   -1.406153
  C     -4.530029    0.460483   -0.200254
  H     -0.073509   -1.420500    1.372329
  H     -0.127948   -0.811408   -1.627215
  H      1.716135   -2.552054   -0.825333
  H      1.945094   -2.650590    0.916546
  H      2.002902    2.651630   -0.326868
  H     -1.643403    0.470003    1.605245
  H     -0.478997   -3.525577    0.648911
  H     -2.299242   -0.736256   -2.474898
  H      5.642354    0.417925    0.253316
  H     -4.689046   -0.174273   -2.258734
  H      5.361786   -1.823984    0.452070
  H      4.107010    3.557255   -0.225686
  H     -3.478749    1.189320    2.716125
  H     -6.322639    0.608168   -0.866852

----------------------------
CARTESIAN COORDINATES (A.U.)
----------------------------
  NO LB      ZA    FRAG     MASS         X           Y           Z
   0 O     8.0000    0    15.999    0.803218    1.231072   -0.512131
   1 O     8.0000    0    15.999   -1.309657   -5.364288   -0.005378
   2 O     8.0000    0    15.999    8.317670   -3.695201    0.709310
   3 O     8.0000    0    15.999    8.845347    5.265155   -0.144848
   4 O     8.0000    0    15.999   -7.915055    2.132596    3.883563
   5 O     8.0000    0    15.999  -11.056240    1.485620   -0.068897
   6 C     6.0000    0    12.011    0.192610   -3.209017    0.611571
   7 C     6.0000    0    12.011   -0.624300   -1.018671   -1.100418
   8 C     6.0000    0    12.011    3.009235   -3.763392    0.212504
   9 C     6.0000    0    12.011    4.548198   -1.361751    0.117487
  10 C     6.0000    0    12.011    3.371492    0.977880   -0.252963
  11 C     6.0000    0    12.011   -3.402551   -0.347283   -0.844669
  12 C     6.0000    0    12.011    7.189096   -1.395864    0.365170
  13 C     6.0000    0    12.011    4.765181    3.228043   -0.335702
  14 C     6.0000    0    12.011   -4.367644    0.602478    1.436620
  15 C     6.0000    0    12.011   -5.048931   -0.665293   -2.888658
  16 C     6.0000    0    12.011    8.618304    0.823936    0.279957
  17 C     6.0000    0    12.011    7.385914    3.132363   -0.068699
  18 C     6.0000    0    12.011   -6.925646    1.206570    1.677084
  19 C     6.0000    0    12.011   -7.613208   -0.066468   -2.657244
  20 C     6.0000    0    12.011   -8.560515    0.870186   -0.378426
  21 H     1.0000    0     1.008   -0.138913   -2.684355    2.593326
  22 H     1.0000    0     1.008   -0.241787   -1.533338   -3.074992
  23 H     1.0000    0     1.008    3.243025   -4.822683   -1.559654
  24 H     1.0000    0     1.008    3.675695   -5.008889    1.732021
  25 H     1.0000    0     1.008    3.784937    5.010854   -0.617691
  26 H     1.0000    0     1.008   -3.105581    0.888178    3.033474
  27 H     1.0000    0     1.008   -0.905174   -6.662374    1.226264
  28 H     1.0000    0     1.008   -4.344937   -1.391322   -4.676880
  29 H     1.0000    0     1.008   10.662504    0.789763    0.478697
  30 H     1.0000    0     1.008   -8.861012   -0.329328   -4.268388
  31 H     1.0000    0     1.008   10.132308   -3.446829    0.854289
  32 H     1.0000    0     1.008    7.761125    6.722239   -0.426485
  33 H     1.0000    0     1.008   -6.573884    2.247489    5.132732
  34 H     1.0000    0     1.008  -11.948055    1.149271   -1.638113

--------------------------------
INTERNAL COORDINATES (ANGSTROEM)
--------------------------------
 O      0   0   0     0.000000000000     0.00000000     0.00000000
 O      1   0   0     3.674632528408     0.00000000     0.00000000
 O      1   2   0     4.798533930616    74.11727222     0.00000000
 O      1   2   3     4.765080033343   133.96916491   359.54914911
 O      1   2   3     5.188720895528    77.52991533   213.23971520
 O      5   1   2     2.693483827968   100.88972773   282.71512077
 C      2   1   3     1.428055760538    24.32185136    39.05798190
 C      1   2   3     1.443910746006    22.09584062   137.84923740
 C      7   2   1     1.533698068253   110.90085183   238.50406555
 C      9   7   2     1.510271648990   111.57159443   163.61102549
 C      1   2   3     1.372529607671   101.61179691     0.13169565
 C      8   1   2     1.518549756143   107.12091699   122.64089141
 C      3   1   2     1.367599290657    30.32693772   180.23652006
 C     11   1   2     1.401315765883   115.78950649   180.69676372
 C     12   8   1     1.403839174972   120.83759425   302.52251203
 C     12   8   1     1.399029778691   120.38834118   122.48325558
 C     13   3   1     1.397809937300   121.04374156   179.80535733
 C      4   1   2     1.368160466288    29.24949803     0.44176247
 C      5   1   2     1.370252518776    41.00729147   300.39585902
 C     16  12   8     1.398836718052   120.60795542   179.54597193
 C      6   5   1     1.370069441259    61.84629332    13.06334369
 H      7   2   1     1.098922590281   109.33403176   117.58232439
 H      8   1   2     1.098618359395   108.24391916   239.72901206
 H      9   7   2     1.099529961054   108.92318272    42.14687051
 H      9   7   2     1.097881821362   109.03627004   286.41443671
 H     14  11   1     1.086916860038   119.38427347   359.19642967
 H     15  12   8     1.087632279576   119.63619730     0.92158272
 H      2   1   3     0.970802708133   130.84040788    48.87553619
 H     16  12   8     1.087129560321   120.13756757   359.81875131
 H     17  13   3     1.086994851654   121.42274245     0.16873402
 H     20  16  12     1.087313831537   119.43780822   180.05916281
 H      3   1   2     0.972249401440   139.08300355   180.15144848
 H      4   1   2     0.972585509093    79.75018295   179.55932036
 H      5   1   2     0.971781066366    70.20435848    99.95814882
 H      6   5   1     0.971570639024   170.65880505    14.19229295

---------------------------
INTERNAL COORDINATES (A.U.)
---------------------------
 O      0   0   0     0.000000000000     0.00000000     0.00000000
 O      1   0   0     6.944049121490     0.00000000     0.00000000
 O      1   2   0     9.067914973192    74.11727222     0.00000000
 O      1   2   3     9.004696269234   133.96916491   359.54914911
 O      1   2   3     9.805261477902    77.52991533   213.23971520
 O      5   1   2     5.089946781006   100.88972773   282.71512077
 C      2   1   3     2.698634291386    24.32185136    39.05798190
 C      1   2   3     2.728595871777    22.09584062   137.84923740
 C      7   2   1     2.898269321122   110.90085183   238.50406555
 C      9   7   2     2.853999804417   111.57159443   163.61102549
 C      1   2   3     2.593705069196   101.61179691     0.13169565
 C      8   1   2     2.869643159843   107.12091699   122.64089141
 C      3   1   2     2.584388120287    30.32693772   180.23652006
 C     11   1   2     2.648103024665   115.78950649   180.69676372
 C     12   8   1     2.652871576767   120.83759425   302.52251203
 C     12   8   1     2.643783134926   120.38834118   122.48325558
 C     13   3   1     2.641477968770   121.04374156   179.80535733
 C      4   1   2     2.585448588541    29.24949803     0.44176247
 C      5   1   2     2.589401994803    41.00729147   300.39585902
 C     16  12   8     2.643418303192   120.60795542   179.54597193
 C      6   5   1     2.589056028433    61.84629332    13.06334369
 H      7   2   1     2.076662738011   109.33403176   117.58232439
 H      8   1   2     2.076087824954   108.24391916   239.72901206
 H      9   7   2     2.077810502433   108.92318272    42.14687051
 H      9   7   2     2.074695969785   109.03627004   286.41443671
 H     14  11   1     2.053975195813   119.38427347   359.19642967
 H     15  12   8     2.055327142811   119.63619730     0.92158272
 H      2   1   3     1.834551248441   130.84040788    48.87553619
 H     16  12   8     2.054377141098   120.13756757   359.81875131
 H     17  13   3     2.054122578608   121.42274245     0.16873402
 H     20  16  12     2.054725363229   119.43780822   180.05916281
 H      3   1   2     1.837285102591   139.08300355   180.15144848
 H      4   1   2     1.837920254006    79.75018295   179.55932036
 H      5   1   2     1.836400077562    70.20435848    99.95814882
 H      6   5   1     1.836002427514   170.65880505    14.19229295

------------------------------------------------------------------------------
                   ___                                                        
                  /   \      - P O W E R E D   B Y -                         
                 /     \                                                     
                 |  |  |   _    _      __       _____    __    __             
                 |  |  |  | |  | |    /  \     |  _  \  |  |  /  |          
                  \  \/   | |  | |   /    \    | | | |  |  | /  /          
                 / \  \   | |__| |  /  /\  \   | |_| |  |  |/  /          
                |  |  |   |  __  | /  /__\  \  |    /   |      \           
                |  |  |   | |  | | |   __   |  |    \   |  |\   \          
                \     /   | |  | | |  |  |  |  | |\  \  |  | \   \       
                 \___/    |_|  |_| |__|  |__|  |_| \__\ |__|  \__/        
                                                                              
                      - O R C A' S   B I G   F R I E N D -                    
                                      &                                       
                       - I N T E G R A L  F E E D E R -                       
                                                                              
 v1 FN, 2020, v2 2021, v3 2022-2024                                           
------------------------------------------------------------------------------


----------------------
SHARK INTEGRAL PACKAGE
----------------------

Number of atoms                             ...     35
Number of basis functions                   ...    322
Number of shells                            ...    154
Maximum angular momentum                    ...      2
Integral batch strategy                     ... SHARK/LIBINT Hybrid
RI-J (if used) integral strategy            ... SPLIT-RIJ (Revised 2003 algorithm where possible)
Printlevel                                  ...      1
Contraction scheme used                     ... SEGMENTED contraction
Prescreening option                         ... SCHWARTZ
   Thresh                                   ... 2.500e-11
   Tcut                                     ... 2.500e-12
   Tpresel                                  ... 2.500e-12 
Coulomb Range Separation                    ... NOT USED
Exchange Range Separation                   ... NOT USED
Multipole approximations                    ... NOT USED
Finite Nucleus Model                        ... NOT USED
CABS basis                                  ... NOT available
Auxiliary Coulomb fitting basis             ... AVAILABLE
   # of basis functions in Aux-J            ...   1183
   # of shells in Aux-J                     ...    385
   Maximum angular momentum in Aux-J        ...      4
Auxiliary J/K fitting basis                 ... NOT available
Auxiliary Correlation fitting basis         ... NOT available
Auxiliary 'external' fitting basis          ... NOT available

Checking pre-screening integrals            ... done (  0.0 sec) Dimension = 154
   => SHARK Basis and OBASIS are compatible. Storing Pre-screening
Shell pair information
Shell pair cut-off parameter TPreSel        ...   2.5e-12
Total number of shell pairs                 ...     11935
Shell pairs after pre-screening             ...      8442
Total number of primitive shell pairs       ...     69489
Primitive shell pairs kept                  ...     27506
          la=0 lb=0:   2818 shell pairs
          la=1 lb=0:   2886 shell pairs
          la=1 lb=1:    743 shell pairs
          la=2 lb=0:   1203 shell pairs
          la=2 lb=1:    650 shell pairs
          la=2 lb=2:    142 shell pairs

Checking whether 4 symmetric matrices of dimension 322 fit in memory
:Max Core in MB      =   4096.00
 MB in use           =     15.92
 MB left             =   4080.08
 MB needed           =      1.59
 Data fit in memory  = YES
Calculating RI/J V-Matrix + Cholesky decomp.... done (  0.3 sec)
Calculating Nuclear repulsion               ... done (  0.0 sec) ENN=   1635.385483879997 Eh

Diagonalization of the overlap matrix:
Smallest eigenvalue                        ... 3.992e-04
Time for diagonalization                   ...    0.009 sec
Threshold for overlap eigenvalues          ... 1.000e-07
Number of eigenvalues below threshold      ... 0
Time for construction of square roots      ...    0.018 sec
Total time needed                          ...    0.047 sec

-------------------
DFT GRID GENERATION
-------------------

General Integration Accuracy     IntAcc      ... 4.388
Radial Grid Type                 RadialGrid  ... OptM3 with GC (2021)
Angular Grid (max. ang.)         AngularGrid ... 4 (Lebedev-302)
Angular grid pruning method      GridPruning ... 4 (adaptive)
Weight generation scheme         WeightScheme... mBecke (2022)
Basis function cutoff            BFCut       ... 1.0000e-11
Integration weight cutoff        WCut        ... 1.0000e-14
Partially contracted basis set               ... off
Rotationally invariant grid construction     ... off
Angular grids for H and He will be reduced by one unit

Total number of grid points                  ...   170389
Total number of batches                      ...     2680
Average number of points per batch           ...       63
Average number of grid points per atom       ...     4868

--------------------
COSX GRID GENERATION
--------------------

GRIDX 1
-------
General Integration Accuracy     IntAcc      ... 3.816
Radial Grid Type                 RadialGrid  ... OptM3 with GC (2021)
Angular Grid (max. ang.)         AngularGrid ... 1 (Lebedev-50)
Angular grid pruning method      GridPruning ... 4 (adaptive)
Weight generation scheme         WeightScheme... mBecke (2022)
Basis function cutoff            BFCut       ... 1.0000e-11
Integration weight cutoff        WCut        ... 1.0000e-14
Partially contracted basis set               ... on
Rotationally invariant grid construction     ... off
Angular grids for H and He will be reduced by one unit

Total number of grid points                  ...    21664
Total number of batches                      ...      188
Average number of points per batch           ...      115
Average number of grid points per atom       ...      619
UseSFitting                                  ... on

GRIDX 2
-------
General Integration Accuracy     IntAcc      ... 4.020
Radial Grid Type                 RadialGrid  ... OptM3 with GC (2021)
Angular Grid (max. ang.)         AngularGrid ... 2 (Lebedev-110)
Angular grid pruning method      GridPruning ... 4 (adaptive)
Weight generation scheme         WeightScheme... mBecke (2022)
Basis function cutoff            BFCut       ... 1.0000e-11
Integration weight cutoff        WCut        ... 1.0000e-14
Partially contracted basis set               ... on
Rotationally invariant grid construction     ... off
Angular grids for H and He will be reduced by one unit

Total number of grid points                  ...    47460
Total number of batches                      ...      391
Average number of points per batch           ...      121
Average number of grid points per atom       ...     1356
UseSFitting                                  ... on

GRIDX 3
-------
General Integration Accuracy     IntAcc      ... 4.338
Radial Grid Type                 RadialGrid  ... OptM3 with GC (2021)
Angular Grid (max. ang.)         AngularGrid ... 3 (Lebedev-194)
Angular grid pruning method      GridPruning ... 4 (adaptive)
Weight generation scheme         WeightScheme... mBecke (2022)
Basis function cutoff            BFCut       ... 1.0000e-11
Integration weight cutoff        WCut        ... 1.0000e-14
Partially contracted basis set               ... on
Rotationally invariant grid construction     ... off
Angular grids for H and He will be reduced by one unit

Total number of grid points                  ...   104059
Total number of batches                      ...      832
Average number of points per batch           ...      125
Average number of grid points per atom       ...     2973
UseSFitting                                  ... on
Grids setup in   7.0 sec
Initializing property integral containers    ... done (  0.0 sec)

SHARK setup successfully completed in   8.2 seconds

Maximum memory used throughout the entire STARTUP-calculation: 73.0 MB
Occupation numbers will be reassigned to an Aufbau configuration
             **** ENERGY FILE WAS UPDATED (Inputs/Catechin_CPCM.en.tmp) ****
Finished Guess after   0.7 sec
Maximum memory used throughout the entire GUESS-calculation: 26.1 MB
--------------------
CPCM SOLVATION MODEL
--------------------
CPCM parameters:
  Epsilon                                         ...      80.1510
  Refrac                                          ...       1.3328
  Rsolv                                           ...       1.3000
  Surface type                                    ... GAUSSIAN VDW
  Discretization scheme                           ... Constant charge density
    Threshold for H atoms                         ...       5.0000 (charges/Ang^2)
    Threshold for non-H atoms                     ...       5.0000 (charges/Ang^2)
  Epsilon function type                           ...         CPCM
Solvent:                                          ... WATER
Radii:
  Scheme                                          ... Element-dependent radii
  Radius for O  used is    3.4469 Bohr (=   1.8240 Ang.)
  Radius for C  used is    3.8550 Bohr (=   2.0400 Ang.)
  Radius for H  used is    2.4944 Bohr (=   1.3200 Ang.)
Calculating surface                               ...        done! (  0.0s)
Cavity surface points                             ...         3010
Cavity Volume                                     ...    2166.2085
Cavity Surface-area                               ...    1122.7655
Calculating surface distance matrix               ...        done! (  0.1s)
Performing Cholesky decomposition & store         ...        done! (  0.9s)
Overall time for CPCM initialization              ...                 1.0s

----------------------------------------D-I-I-S--------------------------------------------
Iteration    Energy (Eh)           Delta-E    RMSDP     MaxDP     DIISErr   Damp  Time(sec)
-------------------------------------------------------------------------------------------
               ***  Starting incremental Fock matrix formation  ***
    1    -1030.7739621317639376     0.00e+00  1.52e-04  3.85e-03  1.61e-02  0.700  22.6
    2    -1030.7749675710217616    -1.01e-03  1.36e-04  3.55e-03  1.27e-02  0.700  11.0
                               ***Turning on AO-DIIS***
    3    -1030.7757531065487910    -7.86e-04  1.10e-04  2.87e-03  9.51e-03  0.700  11.1
    4    -1030.7763283529013734    -5.75e-04  2.76e-04  7.17e-03  6.89e-03  0.000  12.3
                              *** Initializing SOSCF ***
---------------------------------------S-O-S-C-F--------------------------------------
Iteration    Energy (Eh)           Delta-E    RMSDP     MaxDP     MaxGrad    Time(sec)
--------------------------------------------------------------------------------------
    5    -1030.7777665953465203    -1.44e-03  1.50e-05  4.40e-04  2.89e-04    11.8
               *** Restarting incremental Fock matrix formation ***
    6    -1030.7777669514323406    -3.56e-07  1.13e-05  3.43e-04  1.08e-04    24.0
    7    -1030.7777671494802689    -1.98e-07  6.36e-06  2.51e-04  1.59e-04    14.6
    8    -1030.7777676695561695    -5.20e-07  2.56e-06  7.10e-05  3.28e-05    14.0
    9    -1030.7777676751691160    -5.61e-09  9.07e-07  2.75e-05  1.06e-05    12.1
                 **** Energy Check signals convergence ****

               *****************************************************
               *                     SUCCESS                       *
               *           SCF CONVERGED AFTER   9 CYCLES          *
               *****************************************************

Recomputing exchange energy using gridx3       ... done (   29.345 sec)
Old exchange energy                            :    -26.466753678 Eh
New exchange energy                            :    -26.466764852 Eh
Exchange energy change after final integration :     -0.000011174 Eh
Total energy after final integration           :  -1030.777778869 Eh
             **** ENERGY FILE WAS UPDATED (Inputs/Catechin_CPCM.en.tmp) ****

----------------
TOTAL SCF ENERGY
----------------

Total Energy       :      -1030.77777886856143 Eh          -28048.88934 eV

Components:
Nuclear Repulsion  :       1635.38548387999731 Eh           44501.10141 eV
Electronic Energy  :      -2666.12003950294820 Eh          -72548.81459 eV
One Electron Energy:      -4658.74603740610110 Eh         -126770.92459 eV
Two Electron Energy:       1992.62599790315289 Eh           54222.11000 eV
CPCM Dielectric    :         -0.04321207131772 Eh              -1.17586 eV

Virial components:
Potential Energy   :      -2055.60516150904596 Eh          -55935.86017 eV
Kinetic Energy     :       1024.82738264048453 Eh           27886.97083 eV
Virial Ratio       :          2.00580624242567

DFT components:
N(Alpha)           :       75.999996181584 electrons
N(Beta)            :       75.999996181584 electrons
N(Total)           :      151.999992363169 electrons
E(X)               :     -105.200576001415 Eh       
E(C)               :       -6.208318840416 Eh       
E(XC)              :     -111.408894841831 Eh       

CPCM Solvation Model Properties:
Surface-charge          :         -0.01540025314285
Corrected charge        :         -0.00000000000000
Outlying charge corr.   :          0.00001284587201 Eh               0.00035 eV
Free-energy (cav+disp)  :  This term is not implemented in the current solvation scheme

---------------
SCF CONVERGENCE
---------------

  Last Energy change         ...    5.6129e-09  Tolerance :   1.0000e-08
  Last MAX-Density change    ...    2.7495e-05  Tolerance :   1.0000e-07
  Last RMS-Density change    ...    9.0744e-07  Tolerance :   5.0000e-09
  Last DIIS Error            ...    2.8918e-04  Tolerance :   5.0000e-07
  Last Orbital Gradient      ...    1.0603e-05  Tolerance :   1.0000e-05
  Last Orbital Rotation      ...    1.7296e-05  Tolerance :   1.0000e-05


Total SCF time: 0 days 0 hours 2 min 57 sec 
Finished LeanSCF after 178.6 sec

Maximum memory used throughout the entire LEANSCF-calculation: 92.1 MB

------------------------------------------------------------------------------
                         ORCA PROPERTY INTEGRAL CALCULATIONS
------------------------------------------------------------------------------

GBWName                                   ... Inputs/Catechin_CPCM.gbw
Number of atoms                           ...     35
Number of basis functions                 ...    322
Max core memory                           ...   4096 MB

Dipole integrals                          ... YES
Quadrupole integrals                      ...  NO
Linear momentum integrals                 ...  NO
Angular momentum integrals                ...  NO
Higher moments length integrals           ...  NO
Higher moments velocity integrals         ...  NO
Kinetic energy integrals                  ...  NO
GIAO right hand sides                     ...  NO
GIAO dipole derivative integrals          ...  NO
SOC integrals                             ...  NO
EPR diamagnetic integrals (GIAO)          ...  NO
EPR gauge integrals                       ...  NO
Field gradient integrals                  ...  NO (   0 nuclei)
Spin-dipole/Fermi contact integrals       ...  NO (   0 nuclei)
Contact density integrals                 ...  NO (   0 nuclei)
Nucleus-orbit integrals                   ...  NO (   0 nuclei)
Geometric perturbations                   ...  NO (  35 nuclei)

Choice of electric origin   ... Center of mass
Position of electric origin ... ( -0.0117, -0.0142,  0.0503) 
Choice of magnetic origin   ... GIAO
Position of magnetic origin ... (  0.0000,  0.0000,  0.0000) 

Calculating integrals                     ... Electric Dipole (Length)     done (  0.1 sec)

Property integrals calculated in   0.1 sec

Maximum memory used throughout the entire PROPINT-calculation: 25.8 MB

-------------------------   --------------------
FINAL SINGLE POINT ENERGY     -1030.777778868561
-------------------------   --------------------

------------------------------------------------------------------------------
                         ORCA SCF GRADIENT CALCULATION
------------------------------------------------------------------------------

Nuc. rep. gradient        (SHARK) ... done (  0.0 sec)
HCore & Overlap gradient  (SHARK) ... done (  1.0 sec)
Split-RIJ-J gradient      (SHARK) ... done (  5.0 sec)
COSX-gradient                     ... done ( 68.2 sec)
XC gradient                       ... done ( 16.8 sec)
CPCM gradient                     ... done (  4.9 sec)

------------------
CARTESIAN GRADIENT
------------------

   1   O   :   -0.002568516    0.002153208   -0.002148771
   2   O   :    0.001230528   -0.003412903    0.001964527
   3   O   :    0.002193423    0.000480405    0.000588890
   4   O   :   -0.000358426    0.000975299   -0.000009074
   5   O   :    0.003916298   -0.000224595    0.002242329
   6   O   :   -0.001706971   -0.000983979   -0.004295528
   7   C   :   -0.004581559    0.005120982   -0.000273767
   8   C   :    0.010141522   -0.000495598    0.000548552
   9   C   :   -0.000974804    0.000545835   -0.001203510
  10   C   :    0.004007015    0.004191567   -0.000253538
  11   C   :   -0.004062926   -0.002915160   -0.000531656
  12   C   :   -0.000979684   -0.000050012    0.002798125
  13   C   :   -0.004199415   -0.004613550   -0.000504232
  14   C   :    0.002647822   -0.001339584    0.000497598
  15   C   :    0.000059513    0.001324202    0.004902358
  16   C   :   -0.000769174    0.000285764   -0.000901370
  17   C   :   -0.001842195    0.000592722   -0.000121797
  18   C   :    0.002521224   -0.002155558    0.000128301
  19   C   :   -0.008811814   -0.001211896   -0.009362278
  20   C   :   -0.005876287    0.000847500   -0.001638714
  21   C   :    0.008671217    0.001460977    0.009860603
  22   H   :   -0.000386665   -0.003163399    0.000197627
  23   H   :   -0.000853536    0.001265321   -0.000297934
  24   H   :    0.002248663    0.000909614   -0.000083355
  25   H   :   -0.000792834   -0.000342491    0.000472735
  26   H   :   -0.000409978   -0.000003572    0.000107312
  27   H   :    0.001179412   -0.000619127   -0.001165862
  28   H   :   -0.000375223    0.000871650   -0.000064323
  29   H   :   -0.000418917   -0.000194240   -0.000223554
  30   H   :    0.000176870    0.001090332   -0.000045501
  31   H   :    0.002038481   -0.000768979   -0.001104865
  32   H   :   -0.000357824    0.000518295   -0.000335556
  33   H   :   -0.000324476   -0.000302305   -0.000118414
  34   H   :   -0.000551779    0.000008125   -0.000296965
  35   H   :    0.000171017    0.000155152    0.000671607

Difference to translation invariance:
           :   -0.0000000001    0.0000000000    0.0000000001

Difference to rotation invariance:
           :    0.0003959830   -0.0006222822    0.0002161364

Norm of the Cartesian gradient     ...    0.0283821633
RMS gradient                       ...    0.0027698155
MAX gradient                       ...    0.0101415221

-------
TIMINGS
-------

Total SCF gradient time     ....       96.002 sec

Densities                   ....       0.002 sec  (  0.0%)
One electron gradient       ....       1.047 sec  (  1.1%)
RI-J Coulomb gradient       ....       5.028 sec  (  5.2%)
COSX gradient               ....      68.186 sec  ( 71.0%)
XC gradient                 ....      16.816 sec  ( 17.5%)
CPCM gradient               ....       4.878 sec  (  5.1%)
   A-Matrix (El+Nuc)        ....       0.173 sec  (  0.2%)
   Potential                ....       4.705 sec  (  4.9%)

Maximum memory used throughout the entire SCFGRAD-calculation: 56.5 MB
------------------------------------------------------------------------------
                         ORCA GEOMETRY RELAXATION STEP
------------------------------------------------------------------------------

Reading the OPT-File                    .... done
Getting information on internals        .... done
Copying old internal coords+grads       .... done
Making the new internal coordinates     .... (2022 redundants) done
Validating the new internal coordinates .... (2022 redundants) done
Calculating the B-matrix                .... done
Calculating the G,G- and P matrices     .... done
Transforming gradient to internals      .... done
Projecting the internal gradient        .... done
Number of atoms                         ....  35
Number of internal coordinates          .... 183
Current Energy                          .... -1030.777778869 Eh
Current gradient norm                   ....     0.028382163 Eh/bohr
Maximum allowed component of the step   ....  0.300
Current trust radius                    ....  0.300
Updating the Hessian (BFGS)             .... done
Forming the augmented Hessian           .... done
Diagonalizing the augmented Hessian     .... done
Last element of RFO vector              ....  0.991058093
Lowest eigenvalues of augmented Hessian:
 -0.001601555  0.010950244  0.015031023  0.018191165  0.019446393
Length of the computed step             ....  0.134634989
The final length of the internal step   ....  0.134634989
Converting the step to Cartesian space:
 Initial RMS(Int)=    0.0099525048
Transforming coordinates:
 Iter   0:  RMS(Cart)=    0.0431483056 RMS(Int)=    0.8041684382
done
Storing new coordinates                 .... done
The predicted energy change is          ....    -0.000815293
Previously predicted energy change      ....    -0.003847071
Actually observed energy change         ....    -0.004891440
Ratio of predicted to observed change   ....     1.271471312
New trust radius                        ....     0.300000000

                                .--------------------.
          ----------------------|Geometry convergence|-------------------------
          Item                value                   Tolerance       Converged
          ---------------------------------------------------------------------
          Energy change      -0.0048914402            0.0000050000      NO
          RMS gradient        0.0013591493            0.0001000000      NO
          MAX gradient        0.0056418713            0.0003000000      NO
          RMS step            0.0099525048            0.0020000000      NO
          MAX step            0.0400922882            0.0040000000      NO
          -------------------------------------------------------------------------
          ........................................................
          Max(Bonds)      0.0070      Max(Angles)    1.35
          Max(Dihed)        2.30      Max(Improp)    0.00
          ---------------------------------------------------------------------

The optimization has not yet converged - more geometry cycles are needed


    ---------------------------------------------------------------------------
                         Redundant Internal Coordinates
                            (Angstroem and degrees)

        Definition                    Value    dE/dq     Step     New-Value
    ----------------------------------------------------------------------------
     1. B(C   6,O   1)                1.4281  0.001116 -0.0020    1.4261   
     2. B(C   7,O   0)                1.4439 -0.001592  0.0030    1.4469   
     3. B(C   7,C   6)                1.5333 -0.000109 -0.0000    1.5333   
     4. B(C   8,C   6)                1.5337  0.000546 -0.0007    1.5330   
     5. B(C   9,C   8)                1.5103 -0.001338  0.0030    1.5133   
     6. B(C  10,C   9)                1.3996 -0.000749  0.0009    1.4005   
     7. B(C  10,O   0)                1.3725  0.000379 -0.0002    1.3724   
     8. B(C  11,C   7)                1.5185  0.003124 -0.0065    1.5120   
     9. B(C  12,C   9)                1.4038 -0.001590  0.0022    1.4059   
    10. B(C  12,O   2)                1.3676 -0.000052  0.0001    1.3677   
    11. B(C  13,C  10)                1.4013 -0.000196  0.0005    1.4018   
    12. B(C  14,C  11)                1.4038  0.000506 -0.0009    1.4029   
    13. B(C  15,C  11)                1.3990  0.001901 -0.0030    1.3961   
    14. B(C  16,C  12)                1.3978  0.000486 -0.0003    1.3975   
    15. B(C  17,O   3)                1.3682  0.000173  0.0000    1.3682   
    16. B(C  17,C  16)                1.3970 -0.002532  0.0037    1.4007   
    17. B(C  17,C  13)                1.3949 -0.000590  0.0011    1.3960   
    18. B(C  18,C  14)                1.3967  0.001581 -0.0018    1.3949   
    19. B(C  18,O   4)                1.3703  0.000298 -0.0002    1.3701   
    20. B(C  19,C  15)                1.3988 -0.000015  0.0000    1.3989   
    21. B(C  20,C  19)                1.3968  0.000638 -0.0004    1.3964   
    22. B(C  20,C  18)                1.4012 -0.005153  0.0070    1.4082   
    23. B(C  20,O   5)                1.3701  0.000852 -0.0009    1.3692   
    24. B(H  21,C   6)                1.0989 -0.000546  0.0013    1.1002   
    25. B(H  22,C   7)                1.0986 -0.000188  0.0004    1.0990   
    26. B(H  23,C   8)                1.0995 -0.000141  0.0004    1.0999   
    27. B(H  24,C   8)                1.0979  0.000299 -0.0006    1.0973   
    28. B(H  25,C  13)                1.0869  0.000178 -0.0003    1.0866   
    29. B(H  26,C  14)                1.0876 -0.000266  0.0006    1.0883   
    30. B(H  27,O   1)                0.9708 -0.000740  0.0010    0.9718   
    31. B(H  28,C  15)                1.0871  0.000118 -0.0003    1.0868   
    32. B(H  29,C  16)                1.0870  0.000153 -0.0002    1.0868   
    33. B(H  30,C  19)                1.0873 -0.000275  0.0007    1.0880   
    34. B(H  31,O   2)                0.9722 -0.000310  0.0005    0.9727   
    35. B(H  32,O   3)                0.9726 -0.000030  0.0001    0.9727   
    36. B(H  33,O   4)                0.9718 -0.000602  0.0011    0.9729   
    37. B(H  34,O   5)                0.9716 -0.000688  0.0012    0.9728   
    38. A(C   7,O   0,C  10)          117.33 -0.003020    0.74    118.07   
    39. A(C   6,O   1,H  27)          106.79 -0.000500    0.08    106.87   
    40. A(C  12,O   2,H  31)          108.76 -0.001090    0.26    109.01   
    41. A(C  17,O   3,H  32)          109.00 -0.000816    0.21    109.20   
    42. A(C  18,O   4,H  33)          108.84  0.000304   -0.07    108.77   
    43. A(C  20,O   5,H  34)          108.81  0.000340   -0.08    108.73   
    44. A(O   1,C   6,C   8)          110.90 -0.001624    0.78    111.68   
    45. A(C   8,C   6,H  21)          109.56  0.000816    0.09    109.66   
    46. A(C   7,C   6,C   8)          109.71 -0.002032    0.30    110.01   
    47. A(O   1,C   6,C   7)          108.16  0.003597   -1.35    106.81   
    48. A(C   7,C   6,H  21)          109.14  0.001275   -0.76    108.38   
    49. A(O   1,C   6,H  21)          109.33 -0.001967    0.93    110.26   
    50. A(C   6,C   7,C  11)          113.40 -0.002621    0.82    114.22   
    51. A(C  11,C   7,H  22)          108.73 -0.000385    0.36    109.09   
    52. A(C   6,C   7,H  22)          108.82  0.001184   -0.53    108.29   
    53. A(O   0,C   7,C  11)          107.12 -0.000091    0.12    107.25   
    54. A(O   0,C   7,H  22)          108.24 -0.000657    0.23    108.47   
    55. A(O   0,C   7,C   6)          110.39  0.002569   -0.97    109.42   
    56. A(C   6,C   8,C   9)          111.57  0.001312   -0.38    111.19   
    57. A(C   9,C   8,H  24)          110.88  0.000677   -0.13    110.74   
    58. A(C   6,C   8,H  24)          109.04 -0.001403    0.45    109.48   
    59. A(C   9,C   8,H  23)          109.87 -0.002242    0.82    110.69   
    60. A(C   6,C   8,H  23)          108.92  0.001498   -0.73    108.20   
    61. A(H  23,C   8,H  24)          106.41  0.000121   -0.03    106.38   
    62. A(C   8,C   9,C  10)          120.61 -0.001215    0.19    120.79   
    63. A(C  10,C   9,C  12)          117.86  0.002535   -0.53    117.34   
    64. A(C   8,C   9,C  12)          121.53 -0.001323    0.36    121.89   
    65. A(C   9,C  10,C  13)          121.46 -0.002709    0.57    122.03   
    66. A(O   0,C  10,C  13)          115.79  0.000484   -0.04    115.75   
    67. A(O   0,C  10,C   9)          122.74  0.002221   -0.54    122.20   
    68. A(C  14,C  11,C  15)          118.77 -0.000604    0.08    118.86   
    69. A(C   7,C  11,C  15)          120.39 -0.000671    0.18    120.57   
    70. A(C   7,C  11,C  14)          120.84  0.001275   -0.26    120.58   
    71. A(O   2,C  12,C   9)          117.30  0.003989   -0.85    116.45   
    72. A(C   9,C  12,C  16)          121.66 -0.001473    0.30    121.96   
    73. A(O   2,C  12,C  16)          121.04 -0.002516    0.55    121.59   
    74. A(C  17,C  13,H  25)          121.32 -0.000309    0.05    121.38   
    75. A(C  10,C  13,H  25)          119.38 -0.001041    0.24    119.62   
    76. A(C  10,C  13,C  17)          119.29  0.001349   -0.29    119.00   
    77. A(C  11,C  14,C  18)          120.86 -0.001174    0.26    121.12   
    78. A(C  11,C  14,H  26)          119.64 -0.001210    0.32    119.95   
    79. A(C  18,C  14,H  26)          119.51  0.002385   -0.58    118.93   
    80. A(C  11,C  15,C  19)          120.61  0.000557   -0.16    120.45   
    81. A(C  19,C  15,H  28)          119.25 -0.000751    0.20    119.46   
    82. A(C  11,C  15,H  28)          120.14  0.000194   -0.04    120.09   
    83. A(C  17,C  16,H  29)          119.47 -0.001342    0.32    119.78   
    84. A(C  12,C  16,H  29)          121.42  0.000904   -0.24    121.19   
    85. A(C  12,C  16,C  17)          119.11  0.000438   -0.08    119.03   
    86. A(C  13,C  17,C  16)          120.61 -0.000140    0.03    120.64   
    87. A(O   3,C  17,C  16)          117.50  0.001707   -0.35    117.15   
    88. A(O   3,C  17,C  13)          121.89 -0.001566    0.32    122.21   
    89. A(C  14,C  18,C  20)          119.91  0.001185   -0.23    119.68   
    90. A(O   4,C  18,C  20)          118.10  0.004282   -0.92    117.18   
    91. A(O   4,C  18,C  14)          121.99 -0.005467    1.15    123.14   
    92. A(C  20,C  19,H  30)          120.29  0.003205   -0.78    119.51   
    93. A(C  15,C  19,H  30)          119.44 -0.001778    0.45    119.89   
    94. A(C  15,C  19,C  20)          120.27 -0.001427    0.33    120.60   
    95. A(O   5,C  20,C  18)          118.18  0.004179   -0.90    117.27   
    96. A(C  18,C  20,C  19)          119.58  0.001463   -0.29    119.30   
    97. A(O   5,C  20,C  19)          122.24 -0.005642    1.19    123.43   
    98. D(C   8,C   6,O   1,H  27)     66.25  0.000275   -0.90     65.35   
    99. D(H  21,C   6,O   1,H  27)    -54.67  0.001583   -2.04    -56.72   
   100. D(C   7,C   6,O   1,H  27)   -173.41 -0.000920   -0.89   -174.30   
   101. D(O   0,C   7,C   6,O   1)    178.71  0.000500   -0.93    177.78   
   102. D(C  11,C   7,O   0,C  10)    170.53 -0.000764    0.65    171.18   
   103. D(H  22,C   7,O   0,C  10)    -72.38 -0.001601    1.25    -71.14   
   104. D(C  11,C   7,C   6,O   1)     58.51  0.000563   -0.97     57.54   
   105. D(O   0,C   7,C   6,C   8)    -60.20 -0.000482   -0.62    -60.82   
   106. D(C  11,C   7,C   6,H  21)    -60.35  0.000127   -0.82    -61.17   
   107. D(C  11,C   7,C   6,C   8)    179.60 -0.000419   -0.66    178.94   
   108. D(C   6,C   7,O   0,C  10)     46.62  0.000937    0.16     46.78   
   109. D(O   0,C   7,C   6,H  21)     59.85  0.000064   -0.78     59.07   
   110. D(C   9,C   8,C   6,H  21)    -75.60 -0.001782    1.44    -74.16   
   111. D(C   9,C   8,C   6,O   1)    163.61  0.001178   -0.23    163.38   
   112. D(C   9,C   8,C   6,C   7)     44.19 -0.000964    0.76     44.95   
   113. D(H  23,C   8,C   6,O   1)     42.15  0.002134   -0.52     41.63   
   114. D(H  23,C   8,C   6,C   7)    -77.27 -0.000009    0.47    -76.80   
   115. D(H  23,C   8,C   6,H  21)    162.93 -0.000827    1.16    164.09   
   116. D(C  12,C   9,C   8,C   6)    164.77 -0.000030   -0.79    163.98   
   117. D(C  10,C   9,C   8,H  23)    104.93  0.000908   -0.37    104.55   
   118. D(C  10,C   9,C   8,H  24)   -137.73  0.000085    0.01   -137.72   
   119. D(C  12,C   9,C   8,H  23)    -74.32  0.001204   -1.39    -75.71   
   120. D(C  10,C   9,C   8,C   6)    -15.99 -0.000326    0.23    -15.75   
   121. D(C  13,C  10,C   9,C  12)     -1.01 -0.000003    0.23     -0.78   
   122. D(C  13,C  10,C   9,C   8)    179.72  0.000309   -0.77    178.94   
   123. D(O   0,C  10,C   9,C  12)   -179.84  0.000234    0.27   -179.57   
   124. D(O   0,C  10,C   9,C   8)      0.89  0.000547   -0.74      0.16   
   125. D(C  13,C  10,O   0,C   7)    164.15  0.000076    0.34    164.48   
   126. D(C   9,C  10,O   0,C   7)    -16.97 -0.000185    0.31    -16.66   
   127. D(C  14,C  11,C   7,C   6)     64.56  0.000439    1.32     65.88   
   128. D(C  14,C  11,C   7,O   0)    -57.48 -0.001073    1.94    -55.54   
   129. D(C  15,C  11,C   7,C   6)   -115.48  0.000365    1.68   -113.80   
   130. D(C  15,C  11,C   7,O   0)    122.48 -0.001147    2.30    124.78   
   131. D(C  14,C  11,C   7,H  22)   -174.24 -0.000053    1.43   -172.82   
   132. D(C  16,C  12,C   9,C  10)      0.79 -0.000029   -0.14      0.65   
   133. D(C  16,C  12,C   9,C   8)   -179.95 -0.000344    0.88   -179.07   
   134. D(O   2,C  12,C   9,C  10)   -179.57 -0.000010   -0.07   -179.64   
   135. D(O   2,C  12,C   9,C   8)     -0.31 -0.000325    0.94      0.63   
   136. D(C  16,C  12,O   2,H  31)     -0.25 -0.000204    0.63      0.38   
   137. D(C   9,C  12,O   2,H  31)   -179.90 -0.000226    0.57   -179.33   
   138. D(H  25,C  13,C  10,C   9)   -179.70  0.000101   -0.21   -179.91   
   139. D(C  17,C  13,C  10,O   0)    179.56 -0.000115   -0.36    179.20   
   140. D(C  17,C  13,C  10,C   9)      0.66  0.000084   -0.32      0.34   
   141. D(H  25,C  13,C  10,O   0)     -0.80 -0.000097   -0.25     -1.05   
   142. D(H  26,C  14,C  11,C  15)   -179.04 -0.000026   -0.00   -179.04   
   143. D(H  26,C  14,C  11,C   7)      0.92 -0.000099    0.36      1.28   
   144. D(C  18,C  14,C  11,C  15)      0.41 -0.000004   -0.04      0.37   
   145. D(C  18,C  14,C  11,C   7)   -179.63 -0.000077    0.31   -179.32   
   146. D(H  28,C  15,C  11,C  14)    179.78  0.000083   -0.19    179.59   
   147. D(H  28,C  15,C  11,C   7)     -0.18  0.000155   -0.54     -0.72   
   148. D(C  19,C  15,C  11,C  14)     -0.49  0.000072   -0.16     -0.65   
   149. D(C  19,C  15,C  11,C   7)    179.55  0.000144   -0.51    179.04   
   150. D(H  29,C  16,C  12,C   9)    179.80  0.000025    0.05    179.85   
   151. D(H  29,C  16,C  12,O   2)      0.17 -0.000018   -0.01      0.16   
   152. D(C  17,C  16,C  12,C   9)     -0.21  0.000004    0.11     -0.10   
   153. D(C  17,C  16,C  12,O   2)   -179.84 -0.000039    0.05   -179.79   
   154. D(C  16,C  17,C  13,H  25)   -179.68 -0.000171    0.19   -179.49   
   155. D(C  16,C  17,C  13,C  10)     -0.05 -0.000155    0.31      0.25   
   156. D(O   3,C  17,C  13,H  25)      0.08 -0.000075    0.07      0.15   
   157. D(O   3,C  17,C  13,C  10)    179.71 -0.000060    0.18    179.89   
   158. D(C  16,C  17,O   3,H  32)    178.94 -0.000063    0.24    179.17   
   159. D(O   3,C  17,C  16,C  12)   -179.94  0.000019   -0.08   -180.02   
   160. D(C  13,C  17,O   3,H  32)     -0.83 -0.000152    0.36     -0.47   
   161. D(C  13,C  17,C  16,H  29)    179.82  0.000082   -0.14    179.69   
   162. D(C  13,C  17,C  16,C  12)     -0.17  0.000103   -0.20     -0.37   
   163. D(O   3,C  17,C  16,H  29)      0.06 -0.000002   -0.02      0.03   
   164. D(C  20,C  18,C  14,H  26)    179.32 -0.000067    0.17    179.49   
   165. D(C  20,C  18,C  14,C  11)     -0.13 -0.000070    0.21      0.08   
   166. D(O   4,C  18,C  14,H  26)     -0.65 -0.000085    0.22     -0.43   
   167. D(O   4,C  18,C  14,C  11)    179.90 -0.000087    0.26    180.16   
   168. D(C  20,C  18,O   4,H  33)    179.45 -0.000015    0.05    179.49   
   169. D(C  14,C  18,O   4,H  33)     -0.58  0.000001   -0.00     -0.58   
   170. D(H  30,C  19,C  15,H  28)     -0.21 -0.000030    0.10     -0.11   
   171. D(H  30,C  19,C  15,C  11)   -179.94 -0.000021    0.07   -179.87   
   172. D(C  20,C  19,C  15,H  28)   -179.97 -0.000086    0.22   -179.75   
   173. D(C  20,C  19,C  15,C  11)      0.30 -0.000078    0.19      0.49   
   174. D(C  18,C  20,C  19,H  30)   -179.77 -0.000034    0.10   -179.67   
   175. D(C  18,C  20,C  19,C  15)     -0.01  0.000010   -0.03     -0.04   
   176. D(O   5,C  20,C  19,H  30)      0.12 -0.000006    0.03      0.15   
   177. D(O   5,C  20,C  19,C  15)    179.87  0.000039   -0.09    179.78   
   178. D(C  19,C  20,C  18,C  14)     -0.07  0.000063   -0.17     -0.25   
   179. D(C  19,C  20,C  18,O   4)    179.90  0.000077   -0.22    179.67   
   180. D(O   5,C  20,C  18,C  14)   -179.96  0.000047   -0.11   -180.07   
   181. D(O   5,C  20,C  18,O   4)      0.01  0.000061   -0.16     -0.15   
   182. D(C  19,C  20,O   5,H  34)      0.30  0.000014   -0.05      0.26   
   183. D(C  18,C  20,O   5,H  34)   -179.81  0.000039   -0.11   -179.92   
    ----------------------------------------------------------------------------

Geometry step timings:
Preparation and reading OPT file:      0.004 s ( 3.045 %)
Internal coordinates            :      0.002 s ( 1.399 %)
B/P matrices and projection     :      0.007 s ( 4.866 %)
Hessian update/contruction      :      0.032 s (22.148 %)
Making the step                 :      0.007 s ( 4.562 %)
Converting the step to Cartesian:      0.002 s ( 1.176 %)
Storing new data                :      0.006 s ( 3.984 %)
Checking convergence            :      0.008 s ( 5.205 %)
Final printing                  :      0.078 s (53.611 %)
Total time                      :      0.145 s

Time for energy+gradient        :    284.613 s
Time for complete geometry iter :    285.393 s

         *************************************************************
         *                GEOMETRY OPTIMIZATION CYCLE   3            *
         *************************************************************
---------------------------------
CARTESIAN COORDINATES (ANGSTROEM)
---------------------------------
  O      0.428000    0.637558   -0.262747
  O     -0.708658   -2.823929   -0.010211
  O      4.400368   -1.959386    0.341463
  O      4.675185    2.794874   -0.025337
  O     -4.181766    1.193718    2.023686
  O     -5.844492    0.785959   -0.014131
  C      0.110655   -1.703758    0.317778
  C     -0.335467   -0.548293   -0.586033
  C      1.596839   -2.003522    0.091083
  C      2.410998   -0.728733    0.044808
  C      1.788295    0.513537   -0.129862
  C     -1.798494   -0.188920   -0.456894
  C      3.810458   -0.736147    0.179457
  C      2.514549    1.712300   -0.155023
  C     -2.299194    0.345159    0.739877
  C     -2.675656   -0.389097   -1.524356
  C      4.562139    0.441775    0.156005
  C      3.902062    1.666162   -0.008505
  C     -3.649444    0.667524    0.876131
  C     -4.032600   -0.074537   -1.395454
  C     -4.529575    0.453689   -0.202123
  H     -0.051344   -1.407719    1.364952
  H     -0.124096   -0.824714   -1.628481
  H      1.694858   -2.561679   -0.851639
  H      1.961202   -2.668878    0.883901
  H      1.991045    2.654675   -0.291622
  H     -1.628310    0.523208    1.578066
  H     -0.490244   -3.528106    0.622888
  H     -2.308039   -0.795478   -2.462912
  H      5.643397    0.421618    0.263719
  H     -4.708576   -0.236148   -2.232537
  H      5.361072   -1.838148    0.433866
  H      4.104732    3.571468   -0.157833
  H     -3.473946    1.281994    2.685270
  H     -6.336454    0.587972   -0.829653

----------------------------
CARTESIAN COORDINATES (A.U.)
----------------------------
  NO LB      ZA    FRAG     MASS         X           Y           Z
   0 O     8.0000    0    15.999    0.808803    1.204811   -0.496520
   1 O     8.0000    0    15.999   -1.339169   -5.336452   -0.019296
   2 O     8.0000    0    15.999    8.315490   -3.702703    0.645271
   3 O     8.0000    0    15.999    8.834819    5.281546   -0.047881
   4 O     8.0000    0    15.999   -7.902393    2.255801    3.824212
   5 O     8.0000    0    15.999  -11.044489    1.485248   -0.026705
   6 C     6.0000    0    12.011    0.209107   -3.219636    0.600514
   7 C     6.0000    0    12.011   -0.633940   -1.036124   -1.107442
   8 C     6.0000    0    12.011    3.017589   -3.786107    0.172122
   9 C     6.0000    0    12.011    4.556125   -1.377106    0.084675
  10 C     6.0000    0    12.011    3.379387    0.970443   -0.245403
  11 C     6.0000    0    12.011   -3.398660   -0.357008   -0.863404
  12 C     6.0000    0    12.011    7.200721   -1.391117    0.339125
  13 C     6.0000    0    12.011    4.751808    3.235779   -0.292951
  14 C     6.0000    0    12.011   -4.344848    0.652256    1.398165
  15 C     6.0000    0    12.011   -5.056256   -0.735288   -2.880615
  16 C     6.0000    0    12.011    8.621194    0.834834    0.294807
  17 C     6.0000    0    12.011    7.373828    3.148590   -0.016072
  18 C     6.0000    0    12.011   -6.896449    1.261437    1.655648
  19 C     6.0000    0    12.011   -7.620509   -0.140854   -2.637026
  20 C     6.0000    0    12.011   -8.559656    0.857348   -0.381957
  21 H     1.0000    0     1.008   -0.097026   -2.660203    2.579386
  22 H     1.0000    0     1.008   -0.234507   -1.558483   -3.077383
  23 H     1.0000    0     1.008    3.202817   -4.840872   -1.609364
  24 H     1.0000    0     1.008    3.706135   -5.043448    1.670331
  25 H     1.0000    0     1.008    3.762530    5.016609   -0.551085
  26 H     1.0000    0     1.008   -3.077059    0.988721    2.982113
  27 H     1.0000    0     1.008   -0.926426   -6.667154    1.177088
  28 H     1.0000    0     1.008   -4.361561   -1.503235   -4.654228
  29 H     1.0000    0     1.008   10.664475    0.796743    0.498356
  30 H     1.0000    0     1.008   -8.897919   -0.446256   -4.218884
  31 H     1.0000    0     1.008   10.130957   -3.473597    0.819889
  32 H     1.0000    0     1.008    7.756820    6.749097   -0.298261
  33 H     1.0000    0     1.008   -6.564806    2.422618    5.074425
  34 H     1.0000    0     1.008  -11.974162    1.111106   -1.567816

--------------------------------
INTERNAL COORDINATES (ANGSTROEM)
--------------------------------
 O      0   0   0     0.000000000000     0.00000000     0.00000000
 O      1   0   0     3.652075829036     0.00000000     0.00000000
 O      1   2   0     4.784234124858    74.64505066     0.00000000
 O      1   2   3     4.769586138843   134.62048171   358.48369998
 O      1   2   3     5.175619283746    78.11743217   212.41752883
 O      5   1   2     2.661507831698   101.63747309   284.82079506
 C      2   1   3     1.426054485957    24.84860379    37.84702302
 C      1   2   3     1.446941231973    22.24717413   136.89217369
 C      7   2   1     1.532968951776   111.67764545   237.71777933
 C      9   7   2     1.513301515232   111.18495603   163.38016785
 C      1   2   3     1.372385485998   102.48271305   359.85537962
 C      8   1   2     1.512042923343   107.25755958   122.22531699
 C      3   1   2     1.367681453459    30.84326315   181.01010897
 C     11   1   2     1.401824736082   115.75324459   181.47955001
 C     12   8   1     1.402926255969   120.57493252   304.45610729
 C     12   8   1     1.396051424608   120.56819853   124.77702908
 C     13   3   1     1.397525329317   121.59031779   179.70079746
 C      4   1   2     1.368207799943    28.87286398     1.76630844
 C      5   1   2     1.370083834120    40.76955583   302.26303713
 C     16  12   8     1.398878593733   120.44958362   179.03372667
 C      6   5   1     1.369215652665    62.76426879    12.63548077
 H      7   2   1     1.100207382844   110.22300555   115.58442478
 H      8   1   2     1.098991704222   108.45659023   239.90595816
 H      9   7   2     1.099941323923   108.20170837    41.62296091
 H      9   7   2     1.097278274630   109.49049565   286.07657366
 H     14  11   1     1.086639706734   119.62225826   358.94666267
 H     15  12   8     1.088278027352   119.95292341     1.27725228
 H      2   1   3     0.971794497569   131.44475587    47.64929121
 H     16  12   8     1.086818056195   120.09311253   359.27714191
 H     17  13   3     1.086796934274   121.18672053     0.15759886
 H     20  16  12     1.088011996448   119.89249778   180.12841179
 H      3   1   2     0.972722588000   139.85249633   182.00114739
 H      4   1   2     0.972661153897    80.33435033   180.95961014
 H      5   1   2     0.972879997901    70.25451754   102.27748049
 H      6   5   1     0.972779678137   171.49850555    12.63455804

---------------------------
INTERNAL COORDINATES (A.U.)
---------------------------
 O      0   0   0     0.000000000000     0.00000000     0.00000000
 O      1   0   0     6.901423137191     0.00000000     0.00000000
 O      1   2   0     9.040892256541    74.64505066     0.00000000
 O      1   2   3     9.013211574560   134.62048171   358.48369998
 O      1   2   3     9.780503019721    78.11743217   212.41752883
 O      5   1   2     5.029520905195   101.63747309   284.82079506
 C      2   1   3     2.694852430509    24.84860379    37.84702302
 C      1   2   3     2.734322660308    22.24717413   136.89217369
 C      7   2   1     2.896891490661   111.67764545   237.71777933
 C      9   7   2     2.859725421836   111.18495603   163.38016785
 C      1   2   3     2.593432718705   102.48271305   359.85537962
 C      8   1   2     2.857347027852   107.25755958   122.22531699
 C      3   1   2     2.584543385482    30.84326315   181.01010897
 C     11   1   2     2.649064838952   115.75324459   181.47955001
 C     12   8   1     2.651146409869   120.57493252   304.45610729
 C     12   8   1     2.638154861379   120.56819853   124.77702908
 C     13   3   1     2.640940137628   121.59031779   179.70079746
 C      4   1   2     2.585538036187    28.87286398     1.76630844
 C      5   1   2     2.589083227000    40.76955583   302.26303713
 C     16  12   8     2.643497436761   120.44958362   179.03372667
 C      6   5   1     2.587442601816    62.76426879    12.63548077
 H      7   2   1     2.079090644093   110.22300555   115.58442478
 H      8   1   2     2.076793344431   108.45659023   239.90595816
 H      9   7   2     2.078587865598   108.20170837    41.62296091
 H      9   7   2     2.073555431753   109.49049565   286.07657366
 H     14  11   1     2.053451451972   119.62225826   358.94666267
 H     15  12   8     2.056547429259   119.95292341     1.27725228
 H      2   1   3     1.836425458857   131.44475587    47.64929121
 H     16  12   8     2.053788483609   120.09311253   359.27714191
 H     17  13   3     2.053748568962   121.18672053     0.15759886
 H     20  16  12     2.056044703708   119.89249778   180.12841179
 H      3   1   2     1.838179295600   139.85249633   182.00114739
 H      4   1   2     1.838063201969    80.33435033   180.95961014
 H      5   1   2     1.838476757203    70.25451754   102.27748049
 H      6   5   1     1.838287180323   171.49850555    12.63455804

------------------------------------------------------------------------------
                   ___                                                        
                  /   \      - P O W E R E D   B Y -                         
                 /     \                                                     
                 |  |  |   _    _      __       _____    __    __             
                 |  |  |  | |  | |    /  \     |  _  \  |  |  /  |          
                  \  \/   | |  | |   /    \    | | | |  |  | /  /          
                 / \  \   | |__| |  /  /\  \   | |_| |  |  |/  /          
                |  |  |   |  __  | /  /__\  \  |    /   |      \           
                |  |  |   | |  | | |   __   |  |    \   |  |\   \          
                \     /   | |  | | |  |  |  |  | |\  \  |  | \   \       
                 \___/    |_|  |_| |__|  |__|  |_| \__\ |__|  \__/        
                                                                              
                      - O R C A' S   B I G   F R I E N D -                    
                                      &                                       
                       - I N T E G R A L  F E E D E R -                       
                                                                              
 v1 FN, 2020, v2 2021, v3 2022-2024                                           
------------------------------------------------------------------------------


----------------------
SHARK INTEGRAL PACKAGE
----------------------

Number of atoms                             ...     35
Number of basis functions                   ...    322
Number of shells                            ...    154
Maximum angular momentum                    ...      2
Integral batch strategy                     ... SHARK/LIBINT Hybrid
RI-J (if used) integral strategy            ... SPLIT-RIJ (Revised 2003 algorithm where possible)
Printlevel                                  ...      1
Contraction scheme used                     ... SEGMENTED contraction
Prescreening option                         ... SCHWARTZ
   Thresh                                   ... 2.500e-11
   Tcut                                     ... 2.500e-12
   Tpresel                                  ... 2.500e-12 
Coulomb Range Separation                    ... NOT USED
Exchange Range Separation                   ... NOT USED
Multipole approximations                    ... NOT USED
Finite Nucleus Model                        ... NOT USED
CABS basis                                  ... NOT available
Auxiliary Coulomb fitting basis             ... AVAILABLE
   # of basis functions in Aux-J            ...   1183
   # of shells in Aux-J                     ...    385
   Maximum angular momentum in Aux-J        ...      4
Auxiliary J/K fitting basis                 ... NOT available
Auxiliary Correlation fitting basis         ... NOT available
Auxiliary 'external' fitting basis          ... NOT available

Checking pre-screening integrals            ... done (  0.0 sec) Dimension = 154
   => SHARK Basis and OBASIS are compatible. Storing Pre-screening
Shell pair information
Shell pair cut-off parameter TPreSel        ...   2.5e-12
Total number of shell pairs                 ...     11935
Shell pairs after pre-screening             ...      8437
Total number of primitive shell pairs       ...     69489
Primitive shell pairs kept                  ...     27506
          la=0 lb=0:   2815 shell pairs
          la=1 lb=0:   2884 shell pairs
          la=1 lb=1:    743 shell pairs
          la=2 lb=0:   1203 shell pairs
          la=2 lb=1:    650 shell pairs
          la=2 lb=2:    142 shell pairs

Checking whether 4 symmetric matrices of dimension 322 fit in memory
:Max Core in MB      =   4096.00
 MB in use           =     15.92
 MB left             =   4080.08
 MB needed           =      1.59
 Data fit in memory  = YES
Calculating RI/J V-Matrix + Cholesky decomp.... done (  0.3 sec)
Calculating Nuclear repulsion               ... done (  0.0 sec) ENN=   1635.782957057992 Eh

Diagonalization of the overlap matrix:
Smallest eigenvalue                        ... 4.038e-04
Time for diagonalization                   ...    0.009 sec
Threshold for overlap eigenvalues          ... 1.000e-07
Number of eigenvalues below threshold      ... 0
Time for construction of square roots      ...    0.018 sec
Total time needed                          ...    0.052 sec

-------------------
DFT GRID GENERATION
-------------------

General Integration Accuracy     IntAcc      ... 4.388
Radial Grid Type                 RadialGrid  ... OptM3 with GC (2021)
Angular Grid (max. ang.)         AngularGrid ... 4 (Lebedev-302)
Angular grid pruning method      GridPruning ... 4 (adaptive)
Weight generation scheme         WeightScheme... mBecke (2022)
Basis function cutoff            BFCut       ... 1.0000e-11
Integration weight cutoff        WCut        ... 1.0000e-14
Partially contracted basis set               ... off
Rotationally invariant grid construction     ... off
Angular grids for H and He will be reduced by one unit

Total number of grid points                  ...   170383
Total number of batches                      ...     2678
Average number of points per batch           ...       63
Average number of grid points per atom       ...     4868

--------------------
COSX GRID GENERATION
--------------------

GRIDX 1
-------
General Integration Accuracy     IntAcc      ... 3.816
Radial Grid Type                 RadialGrid  ... OptM3 with GC (2021)
Angular Grid (max. ang.)         AngularGrid ... 1 (Lebedev-50)
Angular grid pruning method      GridPruning ... 4 (adaptive)
Weight generation scheme         WeightScheme... mBecke (2022)
Basis function cutoff            BFCut       ... 1.0000e-11
Integration weight cutoff        WCut        ... 1.0000e-14
Partially contracted basis set               ... on
Rotationally invariant grid construction     ... off
Angular grids for H and He will be reduced by one unit

Total number of grid points                  ...    21671
Total number of batches                      ...      189
Average number of points per batch           ...      114
Average number of grid points per atom       ...      619
UseSFitting                                  ... on

GRIDX 2
-------
General Integration Accuracy     IntAcc      ... 4.020
Radial Grid Type                 RadialGrid  ... OptM3 with GC (2021)
Angular Grid (max. ang.)         AngularGrid ... 2 (Lebedev-110)
Angular grid pruning method      GridPruning ... 4 (adaptive)
Weight generation scheme         WeightScheme... mBecke (2022)
Basis function cutoff            BFCut       ... 1.0000e-11
Integration weight cutoff        WCut        ... 1.0000e-14
Partially contracted basis set               ... on
Rotationally invariant grid construction     ... off
Angular grids for H and He will be reduced by one unit

Total number of grid points                  ...    47476
Total number of batches                      ...      389
Average number of points per batch           ...      122
Average number of grid points per atom       ...     1356
UseSFitting                                  ... on

GRIDX 3
-------
General Integration Accuracy     IntAcc      ... 4.338
Radial Grid Type                 RadialGrid  ... OptM3 with GC (2021)
Angular Grid (max. ang.)         AngularGrid ... 3 (Lebedev-194)
Angular grid pruning method      GridPruning ... 4 (adaptive)
Weight generation scheme         WeightScheme... mBecke (2022)
Basis function cutoff            BFCut       ... 1.0000e-11
Integration weight cutoff        WCut        ... 1.0000e-14
Partially contracted basis set               ... on
Rotationally invariant grid construction     ... off
Angular grids for H and He will be reduced by one unit

Total number of grid points                  ...   104063
Total number of batches                      ...      832
Average number of points per batch           ...      125
Average number of grid points per atom       ...     2973
UseSFitting                                  ... on
Grids setup in   5.9 sec
Initializing property integral containers    ... done (  0.0 sec)

SHARK setup successfully completed in   7.1 seconds

Maximum memory used throughout the entire STARTUP-calculation: 73.0 MB
Occupation numbers will be reassigned to an Aufbau configuration
             **** ENERGY FILE WAS UPDATED (Inputs/Catechin_CPCM.en.tmp) ****
Finished Guess after   0.6 sec
Maximum memory used throughout the entire GUESS-calculation: 26.1 MB
--------------------
CPCM SOLVATION MODEL
--------------------
CPCM parameters:
  Epsilon                                         ...      80.1510
  Refrac                                          ...       1.3328
  Rsolv                                           ...       1.3000
  Surface type                                    ... GAUSSIAN VDW
  Discretization scheme                           ... Constant charge density
    Threshold for H atoms                         ...       5.0000 (charges/Ang^2)
    Threshold for non-H atoms                     ...       5.0000 (charges/Ang^2)
  Epsilon function type                           ...         CPCM
Solvent:                                          ... WATER
Radii:
  Scheme                                          ... Element-dependent radii
  Radius for O  used is    3.4469 Bohr (=   1.8240 Ang.)
  Radius for C  used is    3.8550 Bohr (=   2.0400 Ang.)
  Radius for H  used is    2.4944 Bohr (=   1.3200 Ang.)
Calculating surface                               ...        done! (  0.0s)
Cavity surface points                             ...         3029
Cavity Volume                                     ...    2165.4094
Cavity Surface-area                               ...    1122.2053
Calculating surface distance matrix               ...        done! (  0.1s)
Performing Cholesky decomposition & store         ...        done! (  0.8s)
Overall time for CPCM initialization              ...                 0.9s

----------------------------------------D-I-I-S--------------------------------------------
Iteration    Energy (Eh)           Delta-E    RMSDP     MaxDP     DIISErr   Damp  Time(sec)
-------------------------------------------------------------------------------------------
               ***  Starting incremental Fock matrix formation  ***
    1    -1030.7752880488333176     0.00e+00  1.16e-04  2.49e-03  1.50e-02  0.700  22.9
    2    -1030.7761661931040180    -8.78e-04  1.07e-04  2.24e-03  1.19e-02  0.700  11.7
                               ***Turning on AO-DIIS***
    3    -1030.7768659173675587    -7.00e-04  8.91e-05  1.86e-03  9.02e-03  0.700  12.4
    4    -1030.7773842870624321    -5.18e-04  2.27e-04  4.77e-03  6.56e-03  0.000  10.5
                              *** Initializing SOSCF ***
---------------------------------------S-O-S-C-F--------------------------------------
Iteration    Energy (Eh)           Delta-E    RMSDP     MaxDP     MaxGrad    Time(sec)
--------------------------------------------------------------------------------------
    5    -1030.7786901898352880    -1.31e-03  1.40e-05  3.08e-04  3.57e-04    11.6
               *** Restarting incremental Fock matrix formation ***
    6    -1030.7786896980255733     4.92e-07  9.96e-06  2.52e-04  8.27e-05    22.0
    7    -1030.7786902793013724    -5.81e-07  6.57e-06  2.29e-04  9.46e-05    13.2
    8    -1030.7786903312025970    -5.19e-08  3.73e-06  1.10e-04  7.79e-05    15.7
    9    -1030.7786904536815200    -1.22e-07  6.75e-07  1.89e-05  3.88e-06    13.6
   10    -1030.7786904601534843    -6.47e-09  3.92e-07  1.01e-05  4.63e-06    10.0
                 **** Energy Check signals convergence ****

               *****************************************************
               *                     SUCCESS                       *
               *           SCF CONVERGED AFTER  10 CYCLES          *
               *****************************************************

Recomputing exchange energy using gridx3       ... done (   29.219 sec)
Old exchange energy                            :    -26.465186457 Eh
New exchange energy                            :    -26.465211798 Eh
Exchange energy change after final integration :     -0.000025341 Eh
Total energy after final integration           :  -1030.778715798 Eh
             **** ENERGY FILE WAS UPDATED (Inputs/Catechin_CPCM.en.tmp) ****

----------------
TOTAL SCF ENERGY
----------------

Total Energy       :      -1030.77871579847920 Eh          -28048.91484 eV

Components:
Nuclear Repulsion  :       1635.78295705799246 Eh           44511.91720 eV
Electronic Energy  :      -2666.51856851580987 Eh          -72559.65911 eV
One Electron Energy:      -4659.62342055966565 Eh         -126794.79940 eV
Two Electron Energy:       1993.10485204385577 Eh           54235.14029 eV
CPCM Dielectric    :         -0.04307899972241 Eh              -1.17224 eV

Virial components:
Potential Energy   :      -2055.57908838770709 Eh          -55935.15068 eV
Kinetic Energy     :       1024.80037258922766 Eh           27886.23585 eV
Virial Ratio       :          2.00583366611601

DFT components:
N(Alpha)           :       75.999993682691 electrons
N(Beta)            :       75.999993682691 electrons
N(Total)           :      151.999987365382 electrons
E(X)               :     -105.195159440592 Eh       
E(C)               :       -6.208110939663 Eh       
E(XC)              :     -111.403270380255 Eh       

CPCM Solvation Model Properties:
Surface-charge          :         -0.01549563972953
Corrected charge        :          0.00000000000000
Outlying charge corr.   :          0.00001300695517 Eh               0.00035 eV
Free-energy (cav+disp)  :  This term is not implemented in the current solvation scheme

---------------
SCF CONVERGENCE
---------------

  Last Energy change         ...    6.4720e-09  Tolerance :   1.0000e-08
  Last MAX-Density change    ...    1.0067e-05  Tolerance :   1.0000e-07
  Last RMS-Density change    ...    3.9153e-07  Tolerance :   5.0000e-09
  Last DIIS Error            ...    3.5689e-04  Tolerance :   5.0000e-07
  Last Orbital Gradient      ...    4.6274e-06  Tolerance :   1.0000e-05
  Last Orbital Rotation      ...    8.7310e-06  Tolerance :   1.0000e-05


Total SCF time: 0 days 0 hours 3 min 5 sec 
Finished LeanSCF after 187.0 sec

Maximum memory used throughout the entire LEANSCF-calculation: 93.0 MB

------------------------------------------------------------------------------
                         ORCA PROPERTY INTEGRAL CALCULATIONS
------------------------------------------------------------------------------

GBWName                                   ... Inputs/Catechin_CPCM.gbw
Number of atoms                           ...     35
Number of basis functions                 ...    322
Max core memory                           ...   4096 MB

Dipole integrals                          ... YES
Quadrupole integrals                      ...  NO
Linear momentum integrals                 ...  NO
Angular momentum integrals                ...  NO
Higher moments length integrals           ...  NO
Higher moments velocity integrals         ...  NO
Kinetic energy integrals                  ...  NO
GIAO right hand sides                     ...  NO
GIAO dipole derivative integrals          ...  NO
SOC integrals                             ...  NO
EPR diamagnetic integrals (GIAO)          ...  NO
EPR gauge integrals                       ...  NO
Field gradient integrals                  ...  NO (   0 nuclei)
Spin-dipole/Fermi contact integrals       ...  NO (   0 nuclei)
Contact density integrals                 ...  NO (   0 nuclei)
Nucleus-orbit integrals                   ...  NO (   0 nuclei)
Geometric perturbations                   ...  NO (  35 nuclei)

Choice of electric origin   ... Center of mass
Position of electric origin ... ( -0.0100, -0.0109,  0.0492) 
Choice of magnetic origin   ... GIAO
Position of magnetic origin ... (  0.0000,  0.0000,  0.0000) 

Calculating integrals                     ... Electric Dipole (Length)     done (  0.1 sec)

Property integrals calculated in   0.1 sec

Maximum memory used throughout the entire PROPINT-calculation: 25.8 MB

-------------------------   --------------------
FINAL SINGLE POINT ENERGY     -1030.778715798479
-------------------------   --------------------

------------------------------------------------------------------------------
                         ORCA SCF GRADIENT CALCULATION
------------------------------------------------------------------------------

Nuc. rep. gradient        (SHARK) ... done (  0.0 sec)
HCore & Overlap gradient  (SHARK) ... done (  0.9 sec)
Split-RIJ-J gradient      (SHARK) ... done (  5.0 sec)
COSX-gradient                     ... done ( 68.0 sec)
XC gradient                       ... done ( 15.5 sec)
CPCM gradient                     ... done (  5.1 sec)

------------------
CARTESIAN GRADIENT
------------------

   1   O   :   -0.000643440   -0.000855465   -0.000339051
   2   O   :   -0.000821817   -0.000077991   -0.001130534
   3   O   :   -0.000115950   -0.000220683    0.000301193
   4   O   :    0.000231439    0.000856125    0.000066620
   5   O   :   -0.000005134    0.000352858    0.000988343
   6   O   :   -0.001280269    0.000280110   -0.000139598
   7   C   :    0.000247140    0.002219701   -0.000051789
   8   C   :    0.000688532   -0.001573205    0.000558184
   9   C   :   -0.000266217   -0.000600604    0.000371141
  10   C   :    0.002028550    0.001478509   -0.000156982
  11   C   :   -0.000483355    0.000187424   -0.000038617
  12   C   :   -0.000655125    0.000105069    0.001079704
  13   C   :   -0.001200757   -0.001623189   -0.000195080
  14   C   :    0.000300372   -0.000323727    0.000054215
  15   C   :    0.000731824   -0.000352541   -0.000301837
  16   C   :   -0.000054526    0.000300388   -0.000260025
  17   C   :   -0.000051929    0.000019028   -0.000009789
  18   C   :    0.001026180   -0.000070923    0.000051326
  19   C   :   -0.002902537   -0.000522355   -0.002937063
  20   C   :   -0.000680354   -0.000231206   -0.000844648
  21   C   :    0.002681600    0.000721809    0.003397629
  22   H   :    0.000015688   -0.000952972    0.000145243
  23   H   :   -0.000372942    0.000253325   -0.000035013
  24   H   :    0.000605055    0.000104640   -0.000046637
  25   H   :   -0.000365884   -0.000306150    0.000023639
  26   H   :   -0.000181476    0.000097509    0.000011013
  27   H   :    0.000506295   -0.000212889   -0.000276782
  28   H   :    0.000029555    0.000726012    0.000584937
  29   H   :   -0.000083835   -0.000031250   -0.000005171
  30   H   :    0.000154506    0.000499509   -0.000018042
  31   H   :    0.000820002   -0.000386964   -0.000583763
  32   H   :   -0.000013289    0.000317039   -0.000208917
  33   H   :   -0.000085790   -0.000066074   -0.000113667
  34   H   :    0.000146841   -0.000077095    0.000054554
  35   H   :    0.000051044   -0.000033771    0.000005265

Difference to translation invariance:
           :   -0.0000000001    0.0000000000    0.0000000001

Difference to rotation invariance:
           :    0.0003642525    0.0004374481    0.0001216365

Norm of the Cartesian gradient     ...    0.0085324812
RMS gradient                       ...    0.0008326849
MAX gradient                       ...    0.0033976290

-------
TIMINGS
-------

Total SCF gradient time     ....       94.619 sec

Densities                   ....       0.002 sec  (  0.0%)
One electron gradient       ....       0.946 sec  (  1.0%)
RI-J Coulomb gradient       ....       5.019 sec  (  5.3%)
COSX gradient               ....      68.013 sec  ( 71.9%)
XC gradient                 ....      15.470 sec  ( 16.3%)
CPCM gradient               ....       5.126 sec  (  5.4%)
   A-Matrix (El+Nuc)        ....       0.176 sec  (  0.2%)
   Potential                ....       4.950 sec  (  5.2%)

Maximum memory used throughout the entire SCFGRAD-calculation: 56.7 MB
------------------------------------------------------------------------------
                         ORCA GEOMETRY RELAXATION STEP
------------------------------------------------------------------------------

Reading the OPT-File                    .... done
Getting information on internals        .... done
Copying old internal coords+grads       .... done
Making the new internal coordinates     .... (2022 redundants) done
Validating the new internal coordinates .... (2022 redundants) done
Calculating the B-matrix                .... done
Calculating the G,G- and P matrices     .... done
Transforming gradient to internals      .... done
Projecting the internal gradient        .... done
Number of atoms                         ....  35
Number of internal coordinates          .... 183
Current Energy                          .... -1030.778715798 Eh
Current gradient norm                   ....     0.008532481 Eh/bohr
Maximum allowed component of the step   ....  0.300
Current trust radius                    ....  0.300
Updating the Hessian (BFGS)             .... done
Forming the augmented Hessian           .... done
Diagonalizing the augmented Hessian     .... done
Last element of RFO vector              ....  0.996604177
Lowest eigenvalues of augmented Hessian:
 -0.000191791  0.010511869  0.014877414  0.017570053  0.019417513
Length of the computed step             ....  0.082622024
The final length of the internal step   ....  0.082622024
Converting the step to Cartesian space:
 Initial RMS(Int)=    0.0061075958
Transforming coordinates:
 Iter   0:  RMS(Cart)=    0.0296079280 RMS(Int)=    0.0061095025
done
Storing new coordinates                 .... done
The predicted energy change is          ....    -0.000096550
Previously predicted energy change      ....    -0.000815293
Actually observed energy change         ....    -0.000936930
Ratio of predicted to observed change   ....     1.149194667
New trust radius                        ....     0.450000000

                                .--------------------.
          ----------------------|Geometry convergence|-------------------------
          Item                value                   Tolerance       Converged
          ---------------------------------------------------------------------
          Energy change      -0.0009369299            0.0000050000      NO
          RMS gradient        0.0004585758            0.0001000000      NO
          MAX gradient        0.0021530848            0.0003000000      NO
          RMS step            0.0061075958            0.0020000000      NO
          MAX step            0.0280237868            0.0040000000      NO
          -------------------------------------------------------------------------
          ........................................................
          Max(Bonds)      0.0031      Max(Angles)    0.32
          Max(Dihed)        1.61      Max(Improp)    0.00
          ---------------------------------------------------------------------

The optimization has not yet converged - more geometry cycles are needed


    ---------------------------------------------------------------------------
                         Redundant Internal Coordinates
                            (Angstroem and degrees)

        Definition                    Value    dE/dq     Step     New-Value
    ----------------------------------------------------------------------------
     1. B(C   6,O   1)                1.4261  0.000070 -0.0004    1.4257   
     2. B(C   7,O   0)                1.4469 -0.000344  0.0009    1.4478   
     3. B(C   7,C   6)                1.5333 -0.001609  0.0025    1.5358   
     4. B(C   8,C   6)                1.5330  0.000695 -0.0010    1.5320   
     5. B(C   9,C   8)                1.5133  0.001066 -0.0009    1.5124   
     6. B(C  10,C   9)                1.4005  0.000096  0.0001    1.4006   
     7. B(C  10,O   0)                1.3724  0.000831 -0.0007    1.3717   
     8. B(C  11,C   7)                1.5120  0.000692 -0.0019    1.5102   
     9. B(C  12,C   9)                1.4059 -0.000678  0.0010    1.4070   
    10. B(C  12,O   2)                1.3677 -0.000130  0.0001    1.3678   
    11. B(C  13,C  10)                1.4018  0.000360 -0.0002    1.4017   
    12. B(C  14,C  11)                1.4029 -0.000888  0.0008    1.4037   
    13. B(C  15,C  11)                1.3961 -0.000037 -0.0004    1.3956   
    14. B(C  16,C  12)                1.3975  0.001224 -0.0011    1.3964   
    15. B(C  17,O   3)                1.3682  0.000734 -0.0006    1.3676   
    16. B(C  17,C  16)                1.4007  0.000187  0.0004    1.4011   
    17. B(C  17,C  13)                1.3960  0.000607 -0.0004    1.3956   
    18. B(C  18,C  14)                1.3949  0.001311 -0.0014    1.3935   
    19. B(C  18,O   4)                1.3701  0.000922 -0.0008    1.3692   
    20. B(C  19,C  15)                1.3989 -0.000164  0.0002    1.3991   
    21. B(C  20,C  19)                1.3964  0.001632 -0.0015    1.3949   
    22. B(C  20,C  18)                1.4082 -0.002153  0.0031    1.4112   
    23. B(C  20,O   5)                1.3692  0.001220 -0.0012    1.3680   
    24. B(H  21,C   6)                1.1002 -0.000118  0.0004    1.1006   
    25. B(H  22,C   7)                1.0990 -0.000102  0.0002    1.0992   
    26. B(H  23,C   8)                1.0999  0.000038  0.0000    1.1000   
    27. B(H  24,C   8)                1.0973  0.000084 -0.0002    1.0971   
    28. B(H  25,C  13)                1.0866  0.000170 -0.0003    1.0864   
    29. B(H  26,C  14)                1.0883  0.000063  0.0000    1.0883   
    30. B(H  27,O   1)                0.9718 -0.000136  0.0002    0.9720   
    31. B(H  28,C  15)                1.0868 -0.000010 -0.0000    1.0868   
    32. B(H  29,C  16)                1.0868  0.000143 -0.0002    1.0866   
    33. B(H  30,C  19)                1.0880 -0.000001  0.0001    1.0881   
    34. B(H  31,O   2)                0.9727  0.000006  0.0000    0.9728   
    35. B(H  32,O   3)                0.9727  0.000012  0.0000    0.9727   
    36. B(H  33,O   4)                0.9729  0.000134  0.0000    0.9729   
    37. B(H  34,O   5)                0.9728 -0.000020  0.0002    0.9730   
    38. A(C   7,O   0,C  10)          118.07  0.000634    0.00    118.07   
    39. A(C   6,O   1,H  27)          106.87 -0.001312    0.24    107.11   
    40. A(C  12,O   2,H  31)          109.01 -0.000613    0.14    109.15   
    41. A(C  17,O   3,H  32)          109.20 -0.000206    0.07    109.27   
    42. A(C  18,O   4,H  33)          108.77 -0.000165    0.02    108.79   
    43. A(C  20,O   5,H  34)          108.73 -0.000100    0.01    108.74   
    44. A(O   1,C   6,C   8)          111.68  0.000709   -0.00    111.68   
    45. A(C   8,C   6,H  21)          109.64 -0.000367    0.06    109.70   
    46. A(C   7,C   6,C   8)          110.01  0.000465   -0.18    109.84   
    47. A(O   1,C   6,C   7)          106.81 -0.001087    0.07    106.88   
    48. A(C   7,C   6,H  21)          108.39  0.000546   -0.26    108.13   
    49. A(O   1,C   6,H  21)          110.22 -0.000271    0.30    110.52   
    50. A(C   6,C   7,C  11)          114.22 -0.000225    0.20    114.42   
    51. A(C  11,C   7,H  22)          109.08 -0.000294    0.14    109.22   
    52. A(C   6,C   7,H  22)          108.28  0.000390   -0.20    108.08   
    53. A(O   0,C   7,C  11)          107.26  0.000367   -0.02    107.24   
    54. A(O   0,C   7,H  22)          108.46 -0.000012    0.03    108.49   
    55. A(O   0,C   7,C   6)          109.41 -0.000225   -0.15    109.26   
    56. A(C   6,C   8,C   9)          111.18  0.000110   -0.09    111.10   
    57. A(C   9,C   8,H  24)          110.75  0.000629   -0.14    110.61   
    58. A(C   6,C   8,H  24)          109.49 -0.000417    0.15    109.64   
    59. A(C   9,C   8,H  23)          110.69 -0.000546    0.28    110.97   
    60. A(C   6,C   8,H  23)          108.20  0.000379   -0.22    107.98   
    61. A(H  23,C   8,H  24)          106.38 -0.000174    0.02    106.40   
    62. A(C   8,C   9,C  10)          120.78 -0.000713    0.11    120.90   
    63. A(C  10,C   9,C  12)          117.33  0.000656   -0.17    117.17   
    64. A(C   8,C   9,C  12)          121.88  0.000058    0.06    121.94   
    65. A(C   9,C  10,C  13)          122.03 -0.000445    0.15    122.19   
    66. A(O   0,C  10,C  13)          115.75  0.000571   -0.07    115.68   
    67. A(O   0,C  10,C   9)          122.20 -0.000128   -0.08    122.12   
    68. A(C  14,C  11,C  15)          118.86 -0.000107    0.03    118.88   
    69. A(C   7,C  11,C  15)          120.57 -0.000064    0.04    120.60   
    70. A(C   7,C  11,C  14)          120.57  0.000171   -0.06    120.51   
    71. A(O   2,C  12,C   9)          116.45  0.000380   -0.18    116.27   
    72. A(C   9,C  12,C  16)          121.96 -0.000326    0.09    122.05   
    73. A(O   2,C  12,C  16)          121.59 -0.000054    0.09    121.68   
    74. A(C  17,C  13,H  25)          121.38 -0.000082    0.02    121.40   
    75. A(C  10,C  13,H  25)          119.62 -0.000307    0.08    119.71   
    76. A(C  10,C  13,C  17)          119.00  0.000389   -0.10    118.90   
    77. A(C  11,C  14,C  18)          121.12  0.000188    0.02    121.13   
    78. A(C  11,C  14,H  26)          119.95 -0.000722    0.17    120.12   
    79. A(C  18,C  14,H  26)          118.93  0.000534   -0.18    118.74   
    80. A(C  11,C  15,C  19)          120.45  0.000076   -0.04    120.41   
    81. A(C  19,C  15,H  28)          119.46 -0.000117    0.05    119.51   
    82. A(C  11,C  15,H  28)          120.09  0.000041   -0.01    120.08   
    83. A(C  17,C  16,H  29)          119.78 -0.000597    0.15    119.93   
    84. A(C  12,C  16,H  29)          121.19  0.000435   -0.11    121.07   
    85. A(C  12,C  16,C  17)          119.03  0.000163   -0.04    118.99   
    86. A(C  13,C  17,C  16)          120.64 -0.000436    0.06    120.70   
    87. A(O   3,C  17,C  16)          117.15  0.000744   -0.15    116.99   
    88. A(O   3,C  17,C  13)          122.21 -0.000307    0.09    122.31   
    89. A(C  14,C  18,C  20)          119.68  0.000077   -0.04    119.64   
    90. A(O   4,C  18,C  20)          117.18  0.000774   -0.25    116.93   
    91. A(O   4,C  18,C  14)          123.14 -0.000851    0.29    123.43   
    92. A(C  20,C  19,H  30)          119.51  0.001208   -0.32    119.18   
    93. A(C  15,C  19,H  30)          119.89 -0.001015    0.25    120.14   
    94. A(C  15,C  19,C  20)          120.60 -0.000192    0.07    120.67   
    95. A(O   5,C  20,C  18)          117.27  0.000480   -0.20    117.08   
    96. A(C  18,C  20,C  19)          119.30 -0.000042   -0.04    119.26   
    97. A(O   5,C  20,C  19)          123.43 -0.000437    0.24    123.67   
    98. D(C   8,C   6,O   1,H  27)     65.38  0.000192   -1.21     64.17   
    99. D(H  21,C   6,O   1,H  27)    -56.75  0.000364   -1.50    -58.25   
   100. D(C   7,C   6,O   1,H  27)   -174.30  0.000481   -1.41   -175.71   
   101. D(O   0,C   7,C   6,O   1)    177.79 -0.000265   -0.34    177.46   
   102. D(C  11,C   7,O   0,C  10)    171.17 -0.000196    0.21    171.38   
   103. D(H  22,C   7,O   0,C  10)    -71.14 -0.000351    0.38    -70.76   
   104. D(C  11,C   7,C   6,O   1)     57.56 -0.000423   -0.33     57.23   
   105. D(O   0,C   7,C   6,C   8)    -60.82  0.000196   -0.42    -61.24   
   106. D(C  11,C   7,C   6,H  21)    -61.18  0.000201   -0.61    -61.79   
   107. D(C  11,C   7,C   6,C   8)    178.95  0.000039   -0.42    178.53   
   108. D(C   6,C   7,O   0,C  10)     46.77 -0.000016    0.07     46.85   
   109. D(O   0,C   7,C   6,H  21)     59.05  0.000358   -0.62     58.43   
   110. D(C   9,C   8,C   6,H  21)    -74.15 -0.000535    0.77    -73.38   
   111. D(C   9,C   8,C   6,O   1)    163.38 -0.000414    0.35    163.73   
   112. D(C   9,C   8,C   6,C   7)     44.95  0.000193    0.38     45.33   
   113. D(H  23,C   8,C   6,O   1)     41.62 -0.000054    0.20     41.83   
   114. D(H  23,C   8,C   6,C   7)    -76.80  0.000553    0.23    -76.57   
   115. D(H  23,C   8,C   6,H  21)    164.09 -0.000175    0.62    164.71   
   116. D(C  12,C   9,C   8,C   6)    163.98  0.000133   -0.44    163.54   
   117. D(C  10,C   9,C   8,H  23)    104.56  0.000210   -0.19    104.37   
   118. D(C  10,C   9,C   8,H  24)   -137.71  0.000045   -0.07   -137.78   
   119. D(C  12,C   9,C   8,H  23)    -75.72  0.000318   -0.59    -76.31   
   120. D(C  10,C   9,C   8,C   6)    -15.74  0.000025   -0.04    -15.78   
   121. D(C  13,C  10,C   9,C  12)     -0.78  0.000029    0.04     -0.74   
   122. D(C  13,C  10,C   9,C   8)    178.95  0.000131   -0.34    178.61   
   123. D(O   0,C  10,C   9,C  12)   -179.57  0.000124    0.01   -179.56   
   124. D(O   0,C  10,C   9,C   8)      0.16  0.000226   -0.38     -0.22   
   125. D(C  13,C  10,O   0,C   7)    164.48 -0.000022    0.28    164.75   
   126. D(C   9,C  10,O   0,C   7)    -16.67 -0.000123    0.31    -16.35   
   127. D(C  14,C  11,C   7,C   6)     65.88 -0.000277    1.26     67.15   
   128. D(C  14,C  11,C   7,O   0)    -55.54 -0.000111    1.34    -54.20   
   129. D(C  15,C  11,C   7,C   6)   -113.80 -0.000334    1.52   -112.27   
   130. D(C  15,C  11,C   7,O   0)    124.78 -0.000168    1.61    126.38   
   131. D(C  14,C  11,C   7,H  22)   -172.82 -0.000143    1.24   -171.58   
   132. D(C  16,C  12,C   9,C  10)      0.66 -0.000044    0.01      0.67   
   133. D(C  16,C  12,C   9,C   8)   -179.07 -0.000145    0.40   -178.67   
   134. D(O   2,C  12,C   9,C  10)   -179.64 -0.000034    0.04   -179.60   
   135. D(O   2,C  12,C   9,C   8)      0.63 -0.000135    0.43      1.06   
   136. D(C  16,C  12,O   2,H  31)      0.38 -0.000148    0.45      0.83   
   137. D(C   9,C  12,O   2,H  31)   -179.33 -0.000156    0.43   -178.90   
   138. D(H  25,C  13,C  10,C   9)   -179.91  0.000028   -0.07   -179.98   
   139. D(C  17,C  13,C  10,O   0)    179.20 -0.000084   -0.08    179.13   
   140. D(C  17,C  13,C  10,C   9)      0.34  0.000013   -0.11      0.24   
   141. D(H  25,C  13,C  10,O   0)     -1.05 -0.000069   -0.04     -1.09   
   142. D(H  26,C  14,C  11,C  15)   -179.04 -0.000001   -0.03   -179.07   
   143. D(H  26,C  14,C  11,C   7)      1.28 -0.000057    0.23      1.50   
   144. D(C  18,C  14,C  11,C  15)      0.37  0.000029   -0.11      0.25   
   145. D(C  18,C  14,C  11,C   7)   -179.32 -0.000027    0.15   -179.17   
   146. D(H  28,C  15,C  11,C  14)    179.59  0.000006   -0.01    179.59   
   147. D(H  28,C  15,C  11,C   7)     -0.72  0.000062   -0.26     -0.99   
   148. D(C  19,C  15,C  11,C  14)     -0.65 -0.000017    0.05     -0.60   
   149. D(C  19,C  15,C  11,C   7)    179.03  0.000039   -0.20    178.83   
   150. D(H  29,C  16,C  12,C   9)    179.85  0.000019   -0.01    179.84   
   151. D(H  29,C  16,C  12,O   2)      0.16  0.000007   -0.03      0.13   
   152. D(C  17,C  16,C  12,C   9)     -0.10  0.000018   -0.00     -0.10   
   153. D(C  17,C  16,C  12,O   2)   -179.78  0.000007   -0.03   -179.81   
   154. D(C  16,C  17,C  13,H  25)   -179.49 -0.000064    0.08   -179.41   
   155. D(C  16,C  17,C  13,C  10)      0.25 -0.000049    0.12      0.37   
   156. D(O   3,C  17,C  13,H  25)      0.15 -0.000038    0.05      0.20   
   157. D(O   3,C  17,C  13,C  10)    179.89 -0.000023    0.10    179.98   
   158. D(C  16,C  17,O   3,H  32)    179.17 -0.000087    0.25    179.43   
   159. D(O   3,C  17,C  16,C  12)    179.98  0.000012   -0.04    179.93   
   160. D(C  13,C  17,O   3,H  32)     -0.47 -0.000108    0.28     -0.20   
   161. D(C  13,C  17,C  16,H  29)    179.69  0.000032   -0.06    179.62   
   162. D(C  13,C  17,C  16,C  12)     -0.37  0.000034   -0.06     -0.44   
   163. D(O   3,C  17,C  16,H  29)      0.03  0.000011   -0.04     -0.01   
   164. D(C  20,C  18,C  14,H  26)    179.49 -0.000018    0.07    179.56   
   165. D(C  20,C  18,C  14,C  11)      0.08 -0.000040    0.15      0.23   
   166. D(O   4,C  18,C  14,H  26)     -0.43 -0.000027    0.09     -0.33   
   167. D(O   4,C  18,C  14,C  11)   -179.84 -0.000049    0.17   -179.67   
   168. D(C  20,C  18,O   4,H  33)    179.49 -0.000052    0.13    179.63   
   169. D(C  14,C  18,O   4,H  33)     -0.58 -0.000044    0.11     -0.48   
   170. D(H  30,C  19,C  15,H  28)     -0.11 -0.000009    0.04     -0.07   
   171. D(H  30,C  19,C  15,C  11)   -179.87  0.000013   -0.02   -179.89   
   172. D(C  20,C  19,C  15,H  28)   -179.75 -0.000003    0.03   -179.72   
   173. D(C  20,C  19,C  15,C  11)      0.49  0.000019   -0.03      0.46   
   174. D(C  18,C  20,C  19,H  30)   -179.67 -0.000016    0.05   -179.62   
   175. D(C  18,C  20,C  19,C  15)     -0.04 -0.000030    0.06      0.02   
   176. D(O   5,C  20,C  19,H  30)      0.14 -0.000006    0.03      0.17   
   177. D(O   5,C  20,C  19,C  15)    179.78 -0.000020    0.03    179.82   
   178. D(C  19,C  20,C  18,C  14)     -0.25  0.000041   -0.12     -0.37   
   179. D(C  19,C  20,C  18,O   4)    179.68  0.000048   -0.14    179.53   
   180. D(O   5,C  20,C  18,C  14)    179.92  0.000033   -0.09    179.83   
   181. D(O   5,C  20,C  18,O   4)     -0.15  0.000041   -0.12     -0.27   
   182. D(C  19,C  20,O   5,H  34)      0.26  0.000015   -0.04      0.22   
   183. D(C  18,C  20,O   5,H  34)   -179.92  0.000024   -0.06   -179.99   
    ----------------------------------------------------------------------------

Geometry step timings:
Preparation and reading OPT file:      0.002 s ( 1.584 %)
Internal coordinates            :      0.002 s ( 1.546 %)
B/P matrices and projection     :      0.006 s ( 4.139 %)
Hessian update/contruction      :      0.029 s (19.490 %)
Making the step                 :      0.010 s ( 6.966 %)
Converting the step to Cartesian:      0.003 s ( 1.894 %)
Storing new data                :      0.007 s ( 4.532 %)
Checking convergence            :      0.011 s ( 7.075 %)
Final printing                  :      0.079 s (52.771 %)
Total time                      :      0.151 s

Time for energy+gradient        :    290.472 s
Time for complete geometry iter :    291.358 s

         *************************************************************
         *                GEOMETRY OPTIMIZATION CYCLE   4            *
         *************************************************************
---------------------------------
CARTESIAN COORDINATES (ANGSTROEM)
---------------------------------
  O      0.427522    0.637790   -0.256375
  O     -0.708873   -2.825655   -0.010142
  O      4.398524   -1.963040    0.316256
  O      4.672437    2.793483    0.007205
  O     -4.175195    1.239026    2.003591
  O     -5.843068    0.780331   -0.009401
  C      0.112878   -1.706773    0.314430
  C     -0.336359   -0.547010   -0.586532
  C      1.596187   -2.006054    0.075263
  C      2.409121   -0.731342    0.034923
  C      1.787267    0.513366   -0.125268
  C     -1.797551   -0.187317   -0.459177
  C      3.809636   -0.737245    0.169290
  C      2.511133    1.713576   -0.137757
  C     -2.293597    0.368549    0.730519
  C     -2.679568   -0.412814   -1.516981
  C      4.560005    0.440406    0.159696
  C      3.898159    1.666164    0.009527
  C     -3.642589    0.689482    0.868187
  C     -4.037074   -0.100679   -1.386051
  C     -4.529932    0.448909   -0.202491
  H     -0.040731   -1.406095    1.361943
  H     -0.120740   -0.821554   -1.628808
  H      1.682737   -2.558285   -0.872094
  H      1.968249   -2.676626    0.859828
  H      1.987357    2.656879   -0.264488
  H     -1.620886    0.566901    1.562665
  H     -0.474410   -3.540658    0.605095
  H     -2.315122   -0.836048   -2.449250
  H      5.641027    0.417536    0.267323
  H     -4.721195   -0.279899   -2.213048
  H      5.358884   -1.845709    0.417201
  H      4.103626    3.573426   -0.112074
  H     -3.466591    1.347616    2.661350
  H     -6.341766    0.565368   -0.816755

----------------------------
CARTESIAN COORDINATES (A.U.)
----------------------------
  NO LB      ZA    FRAG     MASS         X           Y           Z
   0 O     8.0000    0    15.999    0.807899    1.205248   -0.484478
   1 O     8.0000    0    15.999   -1.339576   -5.339714   -0.019166
   2 O     8.0000    0    15.999    8.312005   -3.709609    0.597638
   3 O     8.0000    0    15.999    8.829627    5.278918    0.013616
   4 O     8.0000    0    15.999   -7.889975    2.341420    3.786238
   5 O     8.0000    0    15.999  -11.041799    1.474611   -0.017765
   6 C     6.0000    0    12.011    0.213308   -3.225333    0.594187
   7 C     6.0000    0    12.011   -0.635626   -1.033698   -1.108385
   8 C     6.0000    0    12.011    3.016357   -3.790893    0.142226
   9 C     6.0000    0    12.011    4.552579   -1.382037    0.065995
  10 C     6.0000    0    12.011    3.377446    0.970121   -0.236722
  11 C     6.0000    0    12.011   -3.396879   -0.353978   -0.867718
  12 C     6.0000    0    12.011    7.199169   -1.393191    0.319912
  13 C     6.0000    0    12.011    4.745353    3.238190   -0.260324
  14 C     6.0000    0    12.011   -4.334270    0.696456    1.380481
  15 C     6.0000    0    12.011   -5.063649   -0.780106   -2.866678
  16 C     6.0000    0    12.011    8.617160    0.832246    0.301782
  17 C     6.0000    0    12.011    7.366453    3.148594    0.018004
  18 C     6.0000    0    12.011   -6.883496    1.302932    1.640635
  19 C     6.0000    0    12.011   -7.628964   -0.190256   -2.619256
  20 C     6.0000    0    12.011   -8.560332    0.848314   -0.382652
  21 H     1.0000    0     1.008   -0.076970   -2.657135    2.573699
  22 H     1.0000    0     1.008   -0.228166   -1.552512   -3.078002
  23 H     1.0000    0     1.008    3.179911   -4.834458   -1.648019
  24 H     1.0000    0     1.008    3.719452   -5.058090    1.624840
  25 H     1.0000    0     1.008    3.755560    5.020774   -0.499810
  26 H     1.0000    0     1.008   -3.063030    1.071287    2.953009
  27 H     1.0000    0     1.008   -0.896505   -6.690875    1.143464
  28 H     1.0000    0     1.008   -4.374946   -1.579902   -4.628411
  29 H     1.0000    0     1.008   10.659997    0.789028    0.505167
  30 H     1.0000    0     1.008   -8.921766   -0.528933   -4.182055
  31 H     1.0000    0     1.008   10.126823   -3.487885    0.788395
  32 H     1.0000    0     1.008    7.754729    6.752796   -0.211789
  33 H     1.0000    0     1.008   -6.550908    2.546624    5.029222
  34 H     1.0000    0     1.008  -11.984202    1.068390   -1.543443

--------------------------------
INTERNAL COORDINATES (ANGSTROEM)
--------------------------------
 O      0   0   0     0.000000000000     0.00000000     0.00000000
 O      1   0   0     3.653419232585     0.00000000     0.00000000
 O      1   2   0     4.781326214959    74.60876876     0.00000000
 O      1   2   3     4.768206940993   134.56967559   357.78169624
 O      1   2   3     5.162744624585    78.67286338   211.79643163
 O      5   1   2     2.654117258626   102.01178113   286.18406193
 C      2   1   3     1.425664189318    24.77650957    37.61704589
 C      1   2   3     1.447848902895    22.40616942   136.31005968
 C      7   2   1     1.531984917518   111.66782793   237.58973816
 C      9   7   2     1.512408343474   111.09667877   163.72771490
 C      1   2   3     1.371706378741   102.46861990   359.58832662
 C      8   1   2     1.510192424343   107.23814767   122.03826925
 C      3   1   2     1.367830958161    30.91822113   181.60436453
 C     11   1   2     1.401656791628   115.68415683   181.98007367
 C     12   8   1     1.403718268462   120.51100442   305.80046390
 C     12   8   1     1.395618892159   120.60273349   126.38316351
 C     13   3   1     1.396426047459   121.67870886   179.73798907
 C      4   1   2     1.367611121767    28.76633184     2.59436924
 C      5   1   2     1.369236790288    40.84215729   303.31423396
 C     16  12   8     1.399068998532   120.41342196   178.83012013
 C      6   5   1     1.368009710426    62.98123508    12.33972518
 H      7   2   1     1.100584083582   110.52694174   115.17307745
 H      8   1   2     1.099183925583   108.48911223   239.89436400
 H      9   7   2     1.099970374303   107.98184026    41.82345647
 H      9   7   2     1.097104709721   109.64056218   286.29016324
 H     14  11   1     1.086380383866   119.70653900   358.91048554
 H     15  12   8     1.088278613569   120.11888337     1.50351997
 H      2   1   3     0.971966921907   131.68249789    46.04330453
 H     16  12   8     1.086771886096   120.07804679   359.01157337
 H     17  13   3     1.086607933441   121.07482083     0.12881935
 H     20  16  12     1.088148101331   120.14272392   180.10486875
 H      3   1   2     0.972752840924   140.06382779   183.20576579
 H      4   1   2     0.972668518038    80.50992617   181.96667758
 H      5   1   2     0.972912264209    70.09986319   103.80097717
 H      6   5   1     0.973000178968   171.72419221    11.50627036

---------------------------
INTERNAL COORDINATES (A.U.)
---------------------------
 O      0   0   0     0.000000000000     0.00000000     0.00000000
 O      1   0   0     6.903961801986     0.00000000     0.00000000
 O      1   2   0     9.035397103211    74.60876876     0.00000000
 O      1   2   3     9.010605268340   134.56967559   357.78169624
 O      1   2   3     9.756173439839    78.67286338   211.79643163
 O      5   1   2     5.015554746116   102.01178113   286.18406193
 C      2   1   3     2.694114876750    24.77650957    37.61704589
 C      1   2   3     2.736037909771    22.40616942   136.31005968
 C      7   2   1     2.895031935407   111.66782793   237.58973816
 C      9   7   2     2.858037571823   111.09667877   163.72771490
 C      1   2   3     2.592149391974   102.46861990   359.58832662
 C      8   1   2     2.853850091531   107.23814767   122.03826925
 C      3   1   2     2.584825908424    30.91822113   181.60436453
 C     11   1   2     2.648747469927   115.68415683   181.98007367
 C     12   8   1     2.652643096575   120.51100442   305.80046390
 C     12   8   1     2.637337493507   120.60273349   126.38316351
 C     13   3   1     2.638862795972   121.67870886   179.73798907
 C      4   1   2     2.584410477844    28.76633184     2.59436924
 C      5   1   2     2.587482546133    40.84215729   303.31423396
 C     16  12   8     2.643857249684   120.41342196   178.83012013
 C      6   5   1     2.585163701249    62.98123508    12.33972518
 H      7   2   1     2.079802505323   110.52694174   115.17307745
 H      8   1   2     2.077156590160   108.48911223   239.89436400
 H      9   7   2     2.078642762859   107.98184026    41.82345647
 H      9   7   2     2.073227441607   109.64056218   286.29016324
 H     14  11   1     2.052961402771   119.70653900   358.91048554
 H     15  12   8     2.056548537050   120.11888337     1.50351997
 H      2   1   3     1.836751293635   131.68249789    46.04330453
 H     16  12   8     2.053701234766   120.07804679   359.01157337
 H     17  13   3     2.053391409149   121.07482083     0.12881935
 H     20  16  12     2.056301904663   120.14272392   180.10486875
 H      3   1   2     1.838236465341   140.06382779   183.20576579
 H      4   1   2     1.838077118179    80.50992617   181.96667758
 H      5   1   2     1.838537731688    70.09986319   103.80097717
 H      6   5   1     1.838703866506   171.72419221    11.50627036

------------------------------------------------------------------------------
                   ___                                                        
                  /   \      - P O W E R E D   B Y -                         
                 /     \                                                     
                 |  |  |   _    _      __       _____    __    __             
                 |  |  |  | |  | |    /  \     |  _  \  |  |  /  |          
                  \  \/   | |  | |   /    \    | | | |  |  | /  /          
                 / \  \   | |__| |  /  /\  \   | |_| |  |  |/  /          
                |  |  |   |  __  | /  /__\  \  |    /   |      \           
                |  |  |   | |  | | |   __   |  |    \   |  |\   \          
                \     /   | |  | | |  |  |  |  | |\  \  |  | \   \       
                 \___/    |_|  |_| |__|  |__|  |_| \__\ |__|  \__/        
                                                                              
                      - O R C A' S   B I G   F R I E N D -                    
                                      &                                       
                       - I N T E G R A L  F E E D E R -                       
                                                                              
 v1 FN, 2020, v2 2021, v3 2022-2024                                           
------------------------------------------------------------------------------


----------------------
SHARK INTEGRAL PACKAGE
----------------------

Number of atoms                             ...     35
Number of basis functions                   ...    322
Number of shells                            ...    154
Maximum angular momentum                    ...      2
Integral batch strategy                     ... SHARK/LIBINT Hybrid
RI-J (if used) integral strategy            ... SPLIT-RIJ (Revised 2003 algorithm where possible)
Printlevel                                  ...      1
Contraction scheme used                     ... SEGMENTED contraction
Prescreening option                         ... SCHWARTZ
   Thresh                                   ... 2.500e-11
   Tcut                                     ... 2.500e-12
   Tpresel                                  ... 2.500e-12 
Coulomb Range Separation                    ... NOT USED
Exchange Range Separation                   ... NOT USED
Multipole approximations                    ... NOT USED
Finite Nucleus Model                        ... NOT USED
CABS basis                                  ... NOT available
Auxiliary Coulomb fitting basis             ... AVAILABLE
   # of basis functions in Aux-J            ...   1183
   # of shells in Aux-J                     ...    385
   Maximum angular momentum in Aux-J        ...      4
Auxiliary J/K fitting basis                 ... NOT available
Auxiliary Correlation fitting basis         ... NOT available
Auxiliary 'external' fitting basis          ... NOT available

Checking pre-screening integrals            ... done (  0.0 sec) Dimension = 154
   => SHARK Basis and OBASIS are compatible. Storing Pre-screening
Shell pair information
Shell pair cut-off parameter TPreSel        ...   2.5e-12
Total number of shell pairs                 ...     11935
Shell pairs after pre-screening             ...      8439
Total number of primitive shell pairs       ...     69489
Primitive shell pairs kept                  ...     27509
          la=0 lb=0:   2814 shell pairs
          la=1 lb=0:   2885 shell pairs
          la=1 lb=1:    743 shell pairs
          la=2 lb=0:   1205 shell pairs
          la=2 lb=1:    650 shell pairs
          la=2 lb=2:    142 shell pairs

Checking whether 4 symmetric matrices of dimension 322 fit in memory
:Max Core in MB      =   4096.00
 MB in use           =     15.92
 MB left             =   4080.08
 MB needed           =      1.59
 Data fit in memory  = YES
Calculating RI/J V-Matrix + Cholesky decomp.... done (  0.3 sec)
Calculating Nuclear repulsion               ... done (  0.0 sec) ENN=   1636.123497112576 Eh

Diagonalization of the overlap matrix:
Smallest eigenvalue                        ... 4.039e-04
Time for diagonalization                   ...    0.010 sec
Threshold for overlap eigenvalues          ... 1.000e-07
Number of eigenvalues below threshold      ... 0
Time for construction of square roots      ...    0.023 sec
Total time needed                          ...    0.053 sec

-------------------
DFT GRID GENERATION
-------------------

General Integration Accuracy     IntAcc      ... 4.388
Radial Grid Type                 RadialGrid  ... OptM3 with GC (2021)
Angular Grid (max. ang.)         AngularGrid ... 4 (Lebedev-302)
Angular grid pruning method      GridPruning ... 4 (adaptive)
Weight generation scheme         WeightScheme... mBecke (2022)
Basis function cutoff            BFCut       ... 1.0000e-11
Integration weight cutoff        WCut        ... 1.0000e-14
Partially contracted basis set               ... off
Rotationally invariant grid construction     ... off
Angular grids for H and He will be reduced by one unit

Total number of grid points                  ...   170391
Total number of batches                      ...     2681
Average number of points per batch           ...       63
Average number of grid points per atom       ...     4868

--------------------
COSX GRID GENERATION
--------------------

GRIDX 1
-------
General Integration Accuracy     IntAcc      ... 3.816
Radial Grid Type                 RadialGrid  ... OptM3 with GC (2021)
Angular Grid (max. ang.)         AngularGrid ... 1 (Lebedev-50)
Angular grid pruning method      GridPruning ... 4 (adaptive)
Weight generation scheme         WeightScheme... mBecke (2022)
Basis function cutoff            BFCut       ... 1.0000e-11
Integration weight cutoff        WCut        ... 1.0000e-14
Partially contracted basis set               ... on
Rotationally invariant grid construction     ... off
Angular grids for H and He will be reduced by one unit

Total number of grid points                  ...    21672
Total number of batches                      ...      189
Average number of points per batch           ...      114
Average number of grid points per atom       ...      619
UseSFitting                                  ... on

GRIDX 2
-------
General Integration Accuracy     IntAcc      ... 4.020
Radial Grid Type                 RadialGrid  ... OptM3 with GC (2021)
Angular Grid (max. ang.)         AngularGrid ... 2 (Lebedev-110)
Angular grid pruning method      GridPruning ... 4 (adaptive)
Weight generation scheme         WeightScheme... mBecke (2022)
Basis function cutoff            BFCut       ... 1.0000e-11
Integration weight cutoff        WCut        ... 1.0000e-14
Partially contracted basis set               ... on
Rotationally invariant grid construction     ... off
Angular grids for H and He will be reduced by one unit

Total number of grid points                  ...    47474
Total number of batches                      ...      389
Average number of points per batch           ...      122
Average number of grid points per atom       ...     1356
UseSFitting                                  ... on

GRIDX 3
-------
General Integration Accuracy     IntAcc      ... 4.338
Radial Grid Type                 RadialGrid  ... OptM3 with GC (2021)
Angular Grid (max. ang.)         AngularGrid ... 3 (Lebedev-194)
Angular grid pruning method      GridPruning ... 4 (adaptive)
Weight generation scheme         WeightScheme... mBecke (2022)
Basis function cutoff            BFCut       ... 1.0000e-11
Integration weight cutoff        WCut        ... 1.0000e-14
Partially contracted basis set               ... on
Rotationally invariant grid construction     ... off
Angular grids for H and He will be reduced by one unit

Total number of grid points                  ...   104064
Total number of batches                      ...      831
Average number of points per batch           ...      125
Average number of grid points per atom       ...     2973
UseSFitting                                  ... on
Grids setup in   7.0 sec
Initializing property integral containers    ... done (  0.0 sec)

SHARK setup successfully completed in   8.2 seconds

Maximum memory used throughout the entire STARTUP-calculation: 72.9 MB
Occupation numbers will be reassigned to an Aufbau configuration
             **** ENERGY FILE WAS UPDATED (Inputs/Catechin_CPCM.en.tmp) ****
Finished Guess after   0.6 sec
Maximum memory used throughout the entire GUESS-calculation: 26.1 MB
--------------------
CPCM SOLVATION MODEL
--------------------
CPCM parameters:
  Epsilon                                         ...      80.1510
  Refrac                                          ...       1.3328
  Rsolv                                           ...       1.3000
  Surface type                                    ... GAUSSIAN VDW
  Discretization scheme                           ... Constant charge density
    Threshold for H atoms                         ...       5.0000 (charges/Ang^2)
    Threshold for non-H atoms                     ...       5.0000 (charges/Ang^2)
  Epsilon function type                           ...         CPCM
Solvent:                                          ... WATER
Radii:
  Scheme                                          ... Element-dependent radii
  Radius for O  used is    3.4469 Bohr (=   1.8240 Ang.)
  Radius for C  used is    3.8550 Bohr (=   2.0400 Ang.)
  Radius for H  used is    2.4944 Bohr (=   1.3200 Ang.)
Calculating surface                               ...        done! (  0.0s)
Cavity surface points                             ...         3022
Cavity Volume                                     ...    2164.3535
Cavity Surface-area                               ...    1121.8243
Calculating surface distance matrix               ...        done! (  0.1s)
Performing Cholesky decomposition & store         ...        done! (  0.8s)
Overall time for CPCM initialization              ...                 0.9s

----------------------------------------D-I-I-S--------------------------------------------
Iteration    Energy (Eh)           Delta-E    RMSDP     MaxDP     DIISErr   Damp  Time(sec)
-------------------------------------------------------------------------------------------
               ***  Starting incremental Fock matrix formation  ***
    1    -1030.7773442874924967     0.00e+00  6.67e-05  1.84e-03  1.03e-02  0.700  21.5
    2    -1030.7777229777991579    -3.79e-04  6.35e-05  1.65e-03  8.21e-03  0.700  11.9
                               ***Turning on AO-DIIS***
    3    -1030.7780269840216079    -3.04e-04  5.42e-05  1.35e-03  6.21e-03  0.700  11.5
    4    -1030.7782533737315589    -2.26e-04  1.40e-04  3.34e-03  4.52e-03  0.000  10.9
                              *** Initializing SOSCF ***
---------------------------------------S-O-S-C-F--------------------------------------
Iteration    Energy (Eh)           Delta-E    RMSDP     MaxDP     MaxGrad    Time(sec)
--------------------------------------------------------------------------------------
    5    -1030.7788252558950717    -5.72e-04  9.39e-06  2.17e-04  2.50e-04    12.4
               *** Restarting incremental Fock matrix formation ***
    6    -1030.7788242558406182     1.00e-06  6.25e-06  1.66e-04  4.38e-05    22.5
    7    -1030.7788245468489094    -2.91e-07  2.52e-06  7.00e-05  1.87e-05    13.4
    8    -1030.7788245442768584     2.57e-09  1.29e-06  4.32e-05  2.42e-05    12.0
                 **** Energy Check signals convergence ****

               *****************************************************
               *                     SUCCESS                       *
               *           SCF CONVERGED AFTER   8 CYCLES          *
               *****************************************************

Recomputing exchange energy using gridx3       ... done (   29.180 sec)
Old exchange energy                            :    -26.465418814 Eh
New exchange energy                            :    -26.465448222 Eh
Exchange energy change after final integration :     -0.000029408 Eh
Total energy after final integration           :  -1030.778853980 Eh
             **** ENERGY FILE WAS UPDATED (Inputs/Catechin_CPCM.en.tmp) ****

----------------
TOTAL SCF ENERGY
----------------

Total Energy       :      -1030.77885397986142 Eh          -28048.91860 eV

Components:
Nuclear Repulsion  :       1636.12349711257571 Eh           44521.18377 eV
Electronic Energy  :      -2666.85931448831070 Eh          -72568.93128 eV
One Electron Energy:      -4660.32164884320991 Eh         -126813.79915 eV
Two Electron Energy:       1993.46233435489899 Eh           54244.86787 eV
CPCM Dielectric    :         -0.04300719595847 Eh              -1.17029 eV

Virial components:
Potential Energy   :      -2055.58437579248312 Eh          -55935.29456 eV
Kinetic Energy     :       1024.80552181262146 Eh           27886.37596 eV
Virial Ratio       :          2.00582874705503

DFT components:
N(Alpha)           :       75.999997432796 electrons
N(Beta)            :       75.999997432796 electrons
N(Total)           :      151.999994865591 electrons
E(X)               :     -105.195961866254 Eh       
E(C)               :       -6.208237693529 Eh       
E(XC)              :     -111.404199559783 Eh       

CPCM Solvation Model Properties:
Surface-charge          :         -0.01552458866473
Corrected charge        :          0.00000000000000
Outlying charge corr.   :          0.00001305783917 Eh               0.00036 eV
Free-energy (cav+disp)  :  This term is not implemented in the current solvation scheme

---------------
SCF CONVERGENCE
---------------

  Last Energy change         ...   -2.5721e-09  Tolerance :   1.0000e-08
  Last MAX-Density change    ...    4.3152e-05  Tolerance :   1.0000e-07
  Last RMS-Density change    ...    1.2916e-06  Tolerance :   5.0000e-09
  Last DIIS Error            ...    2.5045e-04  Tolerance :   5.0000e-07
  Last Orbital Gradient      ...    2.4237e-05  Tolerance :   1.0000e-05
  Last Orbital Rotation      ...    5.6985e-05  Tolerance :   1.0000e-05


Total SCF time: 0 days 0 hours 2 min 41 sec 
Finished LeanSCF after 162.3 sec

Maximum memory used throughout the entire LEANSCF-calculation: 92.7 MB

------------------------------------------------------------------------------
                         ORCA PROPERTY INTEGRAL CALCULATIONS
------------------------------------------------------------------------------

GBWName                                   ... Inputs/Catechin_CPCM.gbw
Number of atoms                           ...     35
Number of basis functions                 ...    322
Max core memory                           ...   4096 MB

Dipole integrals                          ... YES
Quadrupole integrals                      ...  NO
Linear momentum integrals                 ...  NO
Angular momentum integrals                ...  NO
Higher moments length integrals           ...  NO
Higher moments velocity integrals         ...  NO
Kinetic energy integrals                  ...  NO
GIAO right hand sides                     ...  NO
GIAO dipole derivative integrals          ...  NO
SOC integrals                             ...  NO
EPR diamagnetic integrals (GIAO)          ...  NO
EPR gauge integrals                       ...  NO
Field gradient integrals                  ...  NO (   0 nuclei)
Spin-dipole/Fermi contact integrals       ...  NO (   0 nuclei)
Contact density integrals                 ...  NO (   0 nuclei)
Nucleus-orbit integrals                   ...  NO (   0 nuclei)
Geometric perturbations                   ...  NO (  35 nuclei)

Choice of electric origin   ... Center of mass
Position of electric origin ... ( -0.0103, -0.0088,  0.0491) 
Choice of magnetic origin   ... GIAO
Position of magnetic origin ... (  0.0000,  0.0000,  0.0000) 

Calculating integrals                     ... Electric Dipole (Length)     done (  0.1 sec)

Property integrals calculated in   0.1 sec

Maximum memory used throughout the entire PROPINT-calculation: 25.8 MB

-------------------------   --------------------
FINAL SINGLE POINT ENERGY     -1030.778853979861
-------------------------   --------------------

------------------------------------------------------------------------------
                         ORCA SCF GRADIENT CALCULATION
------------------------------------------------------------------------------

Nuc. rep. gradient        (SHARK) ... done (  0.0 sec)
HCore & Overlap gradient  (SHARK) ... done (  1.0 sec)
Split-RIJ-J gradient      (SHARK) ... done (  4.9 sec)
COSX-gradient                     ... done ( 67.6 sec)
XC gradient                       ... done ( 16.4 sec)
CPCM gradient                     ... done (  5.7 sec)

------------------
CARTESIAN GRADIENT
------------------

   1   O   :    0.000202938   -0.000499613   -0.000008701
   2   O   :   -0.000523219   -0.000296267   -0.001112958
   3   O   :   -0.000312135   -0.000204787    0.000166969
   4   O   :    0.000147865    0.000263144    0.000100047
   5   O   :   -0.000506768    0.000307561    0.000290235
   6   O   :   -0.000471628    0.000301414    0.000488360
   7   C   :    0.000838124    0.001226230    0.000085772
   8   C   :   -0.000881829   -0.000987081    0.000403070
   9   C   :   -0.000167717   -0.000453996    0.000431193
  10   C   :    0.000683323    0.000304557   -0.000140786
  11   C   :    0.000056396    0.000731431    0.000084294
  12   C   :   -0.000067210    0.000264226    0.000441791
  13   C   :   -0.000187251   -0.000274937   -0.000097039
  14   C   :   -0.000265715   -0.000096624   -0.000051370
  15   C   :    0.000362992   -0.000475421   -0.000844943
  16   C   :   -0.000170047    0.000171266   -0.000202079
  17   C   :    0.000112369   -0.000118504    0.000019031
  18   C   :    0.000349477    0.000183212   -0.000001855
  19   C   :   -0.000535261   -0.000157762   -0.000478819
  20   C   :    0.000247163   -0.000118427   -0.000153330
  21   C   :    0.000495944    0.000184738    0.000629691
  22   H   :    0.000249771   -0.000312723    0.000090602
  23   H   :   -0.000142631   -0.000030792   -0.000021630
  24   H   :    0.000136013   -0.000036852   -0.000005809
  25   H   :   -0.000183574   -0.000134645   -0.000073845
  26   H   :   -0.000040341    0.000032068   -0.000006099
  27   H   :    0.000130900   -0.000043365    0.000011117
  28   H   :   -0.000151202    0.000321853    0.000455316
  29   H   :   -0.000021672   -0.000011330    0.000018532
  30   H   :    0.000057746    0.000208156   -0.000016080
  31   H   :    0.000309600   -0.000162771   -0.000239685
  32   H   :    0.000040757    0.000108902   -0.000122763
  33   H   :   -0.000039584   -0.000011869   -0.000092486
  34   H   :    0.000189982   -0.000109030    0.000066098
  35   H   :    0.000056427   -0.000071959   -0.000111842

Difference to translation invariance:
           :   -0.0000000001    0.0000000000    0.0000000001

Difference to rotation invariance:
           :    0.0003397455    0.0008981570   -0.0000414092

Norm of the Cartesian gradient     ...    0.0035949854
RMS gradient                       ...    0.0003508347
MAX gradient                       ...    0.0012262297

-------
TIMINGS
-------

Total SCF gradient time     ....       95.531 sec

Densities                   ....       0.002 sec  (  0.0%)
One electron gradient       ....       0.967 sec  (  1.0%)
RI-J Coulomb gradient       ....       4.875 sec  (  5.1%)
COSX gradient               ....      67.561 sec  ( 70.7%)
XC gradient                 ....      16.364 sec  ( 17.1%)
CPCM gradient               ....       5.724 sec  (  6.0%)
   A-Matrix (El+Nuc)        ....       0.175 sec  (  0.2%)
   Potential                ....       5.549 sec  (  5.8%)

Maximum memory used throughout the entire SCFGRAD-calculation: 56.8 MB
------------------------------------------------------------------------------
                         ORCA GEOMETRY RELAXATION STEP
------------------------------------------------------------------------------

Reading the OPT-File                    .... done
Getting information on internals        .... done
Copying old internal coords+grads       .... done
Making the new internal coordinates     .... (2022 redundants) done
Validating the new internal coordinates .... (2022 redundants) done
Calculating the B-matrix                .... done
Calculating the G,G- and P matrices     .... done
Transforming gradient to internals      .... done
Projecting the internal gradient        .... done
Number of atoms                         ....  35
Number of internal coordinates          .... 183
Current Energy                          .... -1030.778853980 Eh
Current gradient norm                   ....     0.003594985 Eh/bohr
Maximum allowed component of the step   ....  0.300
Current trust radius                    ....  0.450
Updating the Hessian (BFGS)             .... done
Forming the augmented Hessian           .... done
Diagonalizing the augmented Hessian     .... done
Last element of RFO vector              ....  0.994863280
Lowest eigenvalues of augmented Hessian:
 -0.000106457  0.007353619  0.014031850  0.015934547  0.019410927
Length of the computed step             ....  0.101750397
The final length of the internal step   ....  0.101750397
Converting the step to Cartesian space:
 Initial RMS(Int)=    0.0075216058
Transforming coordinates:
 Iter   0:  RMS(Cart)=    0.0355442493 RMS(Int)=    0.6567720138
done
Storing new coordinates                 .... done
The predicted energy change is          ....    -0.000053780
Previously predicted energy change      ....    -0.000096550
Actually observed energy change         ....    -0.000138181
Ratio of predicted to observed change   ....     1.431188104
New trust radius                        ....     0.450000000

                                .--------------------.
          ----------------------|Geometry convergence|-------------------------
          Item                value                   Tolerance       Converged
          ---------------------------------------------------------------------
          Energy change      -0.0001381814            0.0000050000      NO
          RMS gradient        0.0002267050            0.0001000000      NO
          MAX gradient        0.0008626754            0.0003000000      NO
          RMS step            0.0075216058            0.0020000000      NO
          MAX step            0.0357066498            0.0040000000      NO
          -------------------------------------------------------------------------
          ........................................................
          Max(Bonds)      0.0022      Max(Angles)    0.28
          Max(Dihed)        2.05      Max(Improp)    0.00
          ---------------------------------------------------------------------

The optimization has not yet converged - more geometry cycles are needed


    ---------------------------------------------------------------------------
                         Redundant Internal Coordinates
                            (Angstroem and degrees)

        Definition                    Value    dE/dq     Step     New-Value
    ----------------------------------------------------------------------------
     1. B(C   6,O   1)                1.4257  0.000517 -0.0012    1.4245   
     2. B(C   7,O   0)                1.4478  0.000163  0.0001    1.4479   
     3. B(C   7,C   6)                1.5358 -0.000728  0.0022    1.5380   
     4. B(C   8,C   6)                1.5320  0.000130 -0.0006    1.5314   
     5. B(C   9,C   8)                1.5124  0.000799 -0.0016    1.5108   
     6. B(C  10,C   9)                1.4006  0.000267 -0.0002    1.4004   
     7. B(C  10,O   0)                1.3717  0.000163 -0.0003    1.3714   
     8. B(C  11,C   7)                1.5102 -0.000015 -0.0008    1.5094   
     9. B(C  12,C   9)                1.4070 -0.000228  0.0008    1.4077   
    10. B(C  12,O   2)                1.3678 -0.000026  0.0001    1.3679   
    11. B(C  13,C  10)                1.4017  0.000028  0.0000    1.4017   
    12. B(C  14,C  11)                1.4037 -0.000654  0.0012    1.4049   
    13. B(C  15,C  11)                1.3956 -0.000056 -0.0002    1.3954   
    14. B(C  16,C  12)                1.3964  0.000530 -0.0010    1.3954   
    15. B(C  17,O   3)                1.3676  0.000268 -0.0005    1.3671   
    16. B(C  17,C  16)                1.4011  0.000311 -0.0000    1.4011   
    17. B(C  17,C  13)                1.3956  0.000391 -0.0005    1.3951   
    18. B(C  18,C  14)                1.3935  0.000494 -0.0011    1.3923   
    19. B(C  18,O   4)                1.3692  0.000493 -0.0009    1.3683   
    20. B(C  19,C  15)                1.3991 -0.000203  0.0004    1.3994   
    21. B(C  20,C  19)                1.3949  0.000738 -0.0014    1.3935   
    22. B(C  20,C  18)                1.4112 -0.000576  0.0020    1.4133   
    23. B(C  20,O   5)                1.3680  0.000504 -0.0010    1.3670   
    24. B(H  21,C   6)                1.1006 -0.000032  0.0003    1.1008   
    25. B(H  22,C   7)                1.0992  0.000000  0.0000    1.0992   
    26. B(H  23,C   8)                1.1000  0.000031 -0.0000    1.0999   
    27. B(H  24,C   8)                1.0971 -0.000030  0.0000    1.0971   
    28. B(H  25,C  13)                1.0864  0.000048 -0.0002    1.0862   
    29. B(H  26,C  14)                1.0883  0.000079 -0.0001    1.0881   
    30. B(H  27,O   1)                0.9720  0.000017  0.0000    0.9720   
    31. B(H  28,C  15)                1.0868 -0.000015 -0.0000    1.0868   
    32. B(H  29,C  16)                1.0866  0.000052 -0.0001    1.0865   
    33. B(H  30,C  19)                1.0881  0.000017  0.0001    1.0882   
    34. B(H  31,O   2)                0.9728  0.000041 -0.0001    0.9727   
    35. B(H  32,O   3)                0.9727  0.000025 -0.0000    0.9726   
    36. B(H  33,O   4)                0.9729  0.000165 -0.0002    0.9727   
    37. B(H  34,O   5)                0.9730  0.000086 -0.0000    0.9730   
    38. A(C   7,O   0,C  10)          118.07  0.000646   -0.13    117.94   
    39. A(C   6,O   1,H  27)          107.11 -0.000529    0.20    107.31   
    40. A(C  12,O   2,H  31)          109.15 -0.000207    0.10    109.26   
    41. A(C  17,O   3,H  32)          109.27 -0.000078    0.05    109.33   
    42. A(C  18,O   4,H  33)          108.79 -0.000230    0.06    108.85   
    43. A(C  20,O   5,H  34)          108.74 -0.000228    0.06    108.80   
    44. A(O   1,C   6,C   8)          111.67  0.000456   -0.06    111.61   
    45. A(C   8,C   6,H  21)          109.70 -0.000395    0.12    109.82   
    46. A(C   7,C   6,C   8)          109.83  0.000470   -0.28    109.55   
    47. A(O   1,C   6,C   7)          106.89 -0.000863    0.25    107.14   
    48. A(C   7,C   6,H  21)          108.13  0.000221   -0.19    107.94   
    49. A(O   1,C   6,H  21)          110.53  0.000106    0.15    110.68   
    50. A(C   6,C   7,C  11)          114.42  0.000365    0.01    114.43   
    51. A(C  11,C   7,H  22)          109.22 -0.000175    0.12    109.34   
    52. A(C   6,C   7,H  22)          108.08  0.000025   -0.11    107.96   
    53. A(O   0,C   7,C  11)          107.24  0.000022    0.05    107.28   
    54. A(O   0,C   7,H  22)          108.49  0.000088    0.01    108.50   
    55. A(O   0,C   7,C   6)          109.26 -0.000334   -0.06    109.20   
    56. A(C   6,C   8,C   9)          111.10 -0.000115   -0.06    111.03   
    57. A(C   9,C   8,H  24)          110.61  0.000356   -0.15    110.46   
    58. A(C   6,C   8,H  24)          109.64 -0.000125    0.11    109.75   
    59. A(C   9,C   8,H  23)          110.97 -0.000095    0.19    111.16   
    60. A(C   6,C   8,H  23)          107.98  0.000099   -0.12    107.86   
    61. A(H  23,C   8,H  24)          106.40 -0.000127    0.04    106.44   
    62. A(C   8,C   9,C  10)          120.89 -0.000177    0.06    120.95   
    63. A(C  10,C   9,C  12)          117.17  0.000049   -0.08    117.09   
    64. A(C   8,C   9,C  12)          121.94  0.000128    0.02    121.95   
    65. A(C   9,C  10,C  13)          122.19  0.000087    0.06    122.25   
    66. A(O   0,C  10,C  13)          115.68  0.000248   -0.06    115.62   
    67. A(O   0,C  10,C   9)          122.12 -0.000335    0.00    122.12   
    68. A(C  14,C  11,C  15)          118.88 -0.000030    0.02    118.91   
    69. A(C   7,C  11,C  15)          120.60  0.000113   -0.01    120.59   
    70. A(C   7,C  11,C  14)          120.51 -0.000083   -0.01    120.50   
    71. A(O   2,C  12,C   9)          116.27 -0.000246   -0.05    116.22   
    72. A(C   9,C  12,C  16)          122.05 -0.000029    0.05    122.10   
    73. A(O   2,C  12,C  16)          121.68  0.000276   -0.00    121.68   
    74. A(C  17,C  13,H  25)          121.40  0.000011    0.01    121.40   
    75. A(C  10,C  13,H  25)          119.71 -0.000030    0.04    119.75   
    76. A(C  10,C  13,C  17)          118.90  0.000019   -0.05    118.85   
    77. A(C  11,C  14,C  18)          121.13  0.000276   -0.04    121.10   
    78. A(C  11,C  14,H  26)          120.12 -0.000250    0.12    120.24   
    79. A(C  18,C  14,H  26)          118.74 -0.000026   -0.08    118.66   
    80. A(C  11,C  15,C  19)          120.41 -0.000032   -0.01    120.40   
    81. A(C  19,C  15,H  28)          119.51  0.000005    0.03    119.53   
    82. A(C  11,C  15,H  28)          120.08  0.000027   -0.02    120.06   
    83. A(C  17,C  16,H  29)          119.93 -0.000238    0.12    120.05   
    84. A(C  12,C  16,H  29)          121.07  0.000194   -0.09    120.98   
    85. A(C  12,C  16,C  17)          118.99  0.000044   -0.03    118.97   
    86. A(C  13,C  17,C  16)          120.70 -0.000170    0.05    120.74   
    87. A(O   3,C  17,C  16)          116.99  0.000190   -0.10    116.89   
    88. A(O   3,C  17,C  13)          122.31 -0.000021    0.05    122.36   
    89. A(C  14,C  18,C  20)          119.64 -0.000118    0.00    119.64   
    90. A(O   4,C  18,C  20)          116.93 -0.000014   -0.12    116.81   
    91. A(O   4,C  18,C  14)          123.43  0.000133    0.12    123.55   
    92. A(C  20,C  19,H  30)          119.18  0.000407   -0.24    118.94   
    93. A(C  15,C  19,H  30)          120.14 -0.000476    0.22    120.36   
    94. A(C  15,C  19,C  20)          120.67  0.000069    0.02    120.69   
    95. A(O   5,C  20,C  18)          117.08 -0.000213   -0.06    117.02   
    96. A(C  18,C  20,C  19)          119.26 -0.000165    0.00    119.26   
    97. A(O   5,C  20,C  19)          123.67  0.000377    0.06    123.72   
    98. D(C   8,C   6,O   1,H  27)     64.16  0.000160   -1.83     62.34   
    99. D(H  21,C   6,O   1,H  27)    -58.25  0.000274   -2.05    -60.30   
   100. D(C   7,C   6,O   1,H  27)   -175.70  0.000452   -2.04   -177.74   
   101. D(O   0,C   7,C   6,O   1)    177.45 -0.000104   -0.43    177.02   
   102. D(C  11,C   7,O   0,C  10)    171.38  0.000095    0.13    171.51   
   103. D(H  22,C   7,O   0,C  10)    -70.76 -0.000053    0.30    -70.47   
   104. D(C  11,C   7,C   6,O   1)     57.22 -0.000133   -0.44     56.79   
   105. D(O   0,C   7,C   6,C   8)    -61.24  0.000194   -0.51    -61.75   
   106. D(C  11,C   7,C   6,H  21)    -61.79  0.000093   -0.65    -62.44   
   107. D(C  11,C   7,C   6,C   8)    178.53  0.000165   -0.52    178.01   
   108. D(C   6,C   7,O   0,C  10)     46.84 -0.000161    0.13     46.98   
   109. D(O   0,C   7,C   6,H  21)     58.44  0.000123   -0.64     57.80   
   110. D(C   9,C   8,C   6,H  21)    -73.38 -0.000161    0.74    -72.64   
   111. D(C   9,C   8,C   6,O   1)    163.73 -0.000330    0.51    164.24   
   112. D(C   9,C   8,C   6,C   7)     45.33  0.000155    0.41     45.74   
   113. D(H  23,C   8,C   6,O   1)     41.82 -0.000205    0.39     42.21   
   114. D(H  23,C   8,C   6,C   7)    -76.57  0.000279    0.29    -76.28   
   115. D(H  23,C   8,C   6,H  21)    164.71 -0.000036    0.62    165.33   
   116. D(C  12,C   9,C   8,C   6)    163.54  0.000076   -0.39    163.15   
   117. D(C  10,C   9,C   8,H  23)    104.37  0.000025   -0.17    104.20   
   118. D(C  10,C   9,C   8,H  24)   -137.78  0.000033   -0.10   -137.88   
   119. D(C  12,C   9,C   8,H  23)    -76.31  0.000060   -0.46    -76.77   
   120. D(C  10,C   9,C   8,C   6)    -15.78  0.000040   -0.10    -15.88   
   121. D(C  13,C  10,C   9,C  12)     -0.74  0.000039   -0.07     -0.81   
   122. D(C  13,C  10,C   9,C   8)    178.61  0.000073   -0.34    178.26   
   123. D(O   0,C  10,C   9,C  12)   -179.56  0.000044   -0.06   -179.62   
   124. D(O   0,C  10,C   9,C   8)     -0.21  0.000078   -0.33     -0.55   
   125. D(C  13,C  10,O   0,C   7)    164.75 -0.000018    0.31    165.06   
   126. D(C   9,C  10,O   0,C   7)    -16.35 -0.000024    0.30    -16.05   
   127. D(C  14,C  11,C   7,C   6)     67.14 -0.000233    1.61     68.75   
   128. D(C  14,C  11,C   7,O   0)    -54.20 -0.000057    1.65    -52.55   
   129. D(C  15,C  11,C   7,C   6)   -112.27 -0.000271    1.94   -110.34   
   130. D(C  15,C  11,C   7,O   0)    126.38 -0.000096    1.98    128.36   
   131. D(C  14,C  11,C   7,H  22)   -171.58 -0.000081    1.56   -170.01   
   132. D(C  16,C  12,C   9,C  10)      0.67 -0.000030    0.07      0.75   
   133. D(C  16,C  12,C   9,C   8)   -178.67 -0.000063    0.35   -178.32   
   134. D(O   2,C  12,C   9,C  10)   -179.60 -0.000032    0.10   -179.50   
   135. D(O   2,C  12,C   9,C   8)      1.06 -0.000064    0.38      1.43   
   136. D(C  16,C  12,O   2,H  31)      0.83 -0.000098    0.51      1.33   
   137. D(C   9,C  12,O   2,H  31)   -178.90 -0.000095    0.48   -178.42   
   138. D(H  25,C  13,C  10,C   9)   -179.98 -0.000011    0.01   -179.97   
   139. D(C  17,C  13,C  10,O   0)    179.13 -0.000032   -0.01    179.12   
   140. D(C  17,C  13,C  10,C   9)      0.24 -0.000021   -0.00      0.23   
   141. D(H  25,C  13,C  10,O   0)     -1.09 -0.000022   -0.00     -1.09   
   142. D(H  26,C  14,C  11,C  15)   -179.07 -0.000005   -0.02   -179.09   
   143. D(H  26,C  14,C  11,C   7)      1.50 -0.000044    0.30      1.80   
   144. D(C  18,C  14,C  11,C  15)      0.25  0.000006   -0.09      0.16   
   145. D(C  18,C  14,C  11,C   7)   -179.17 -0.000033    0.23   -178.94   
   146. D(H  28,C  15,C  11,C  14)    179.58  0.000004    0.00    179.59   
   147. D(H  28,C  15,C  11,C   7)     -0.99  0.000042   -0.32     -1.31   
   148. D(C  19,C  15,C  11,C  14)     -0.60  0.000003    0.03     -0.57   
   149. D(C  19,C  15,C  11,C   7)    178.83  0.000041   -0.30    178.53   
   150. D(H  29,C  16,C  12,C   9)    179.84  0.000008   -0.02    179.82   
   151. D(H  29,C  16,C  12,O   2)      0.13  0.000011   -0.05      0.08   
   152. D(C  17,C  16,C  12,C   9)     -0.10  0.000002   -0.00     -0.10   
   153. D(C  17,C  16,C  12,O   2)   -179.81  0.000005   -0.03   -179.84   
   154. D(C  16,C  17,C  13,H  25)   -179.41 -0.000020    0.06   -179.34   
   155. D(C  16,C  17,C  13,C  10)      0.37 -0.000009    0.08      0.45   
   156. D(O   3,C  17,C  13,H  25)      0.20 -0.000011    0.04      0.24   
   157. D(O   3,C  17,C  13,C  10)    179.98 -0.000001    0.05    180.03   
   158. D(C  16,C  17,O   3,H  32)    179.43 -0.000074    0.34    179.77   
   159. D(O   3,C  17,C  16,C  12)    179.93  0.000011   -0.05    179.88   
   160. D(C  13,C  17,O   3,H  32)     -0.20 -0.000081    0.36      0.17   
   161. D(C  13,C  17,C  16,H  29)    179.62  0.000012   -0.06    179.57   
   162. D(C  13,C  17,C  16,C  12)     -0.44  0.000018   -0.07     -0.51   
   163. D(O   3,C  17,C  16,H  29)     -0.01  0.000004   -0.03     -0.04   
   164. D(C  20,C  18,C  14,H  26)    179.56 -0.000011    0.08    179.64   
   165. D(C  20,C  18,C  14,C  11)      0.23 -0.000019    0.14      0.37   
   166. D(O   4,C  18,C  14,H  26)     -0.33 -0.000004    0.06     -0.27   
   167. D(O   4,C  18,C  14,C  11)   -179.66 -0.000013    0.13   -179.54   
   168. D(C  20,C  18,O   4,H  33)    179.63 -0.000069    0.28    179.91   
   169. D(C  14,C  18,O   4,H  33)     -0.48 -0.000075    0.30     -0.18   
   170. D(H  30,C  19,C  15,H  28)     -0.08  0.000003    0.00     -0.07   
   171. D(H  30,C  19,C  15,C  11)   -179.90  0.000004   -0.02   -179.91   
   172. D(C  20,C  19,C  15,H  28)   -179.72  0.000003    0.01   -179.71   
   173. D(C  20,C  19,C  15,C  11)      0.46  0.000004   -0.02      0.45   
   174. D(C  18,C  20,C  19,H  30)   -179.62 -0.000015    0.07   -179.55   
   175. D(C  18,C  20,C  19,C  15)      0.02 -0.000018    0.07      0.09   
   176. D(O   5,C  20,C  19,H  30)      0.17  0.000001    0.01      0.18   
   177. D(O   5,C  20,C  19,C  15)    179.82 -0.000002    0.01    179.82   
   178. D(C  19,C  20,C  18,C  14)     -0.37  0.000027   -0.13     -0.50   
   179. D(C  19,C  20,C  18,O   4)    179.53  0.000021   -0.11    179.42   
   180. D(O   5,C  20,C  18,C  14)    179.83  0.000011   -0.07    179.76   
   181. D(O   5,C  20,C  18,O   4)     -0.27  0.000005   -0.06     -0.33   
   182. D(C  19,C  20,O   5,H  34)      0.22  0.000005   -0.03      0.19   
   183. D(C  18,C  20,O   5,H  34)   -179.99  0.000020   -0.09   -180.08   
    ----------------------------------------------------------------------------

Geometry step timings:
Preparation and reading OPT file:      0.003 s ( 2.113 %)
Internal coordinates            :      0.002 s ( 1.277 %)
B/P matrices and projection     :      0.009 s ( 5.429 %)
Hessian update/contruction      :      0.041 s (24.788 %)
Making the step                 :      0.006 s ( 3.637 %)
Converting the step to Cartesian:      0.003 s ( 1.672 %)
Storing new data                :      0.005 s ( 2.760 %)
Checking convergence            :      0.004 s ( 2.554 %)
Final printing                  :      0.092 s (55.769 %)
Total time                      :      0.165 s

Time for energy+gradient        :    267.860 s
Time for complete geometry iter :    268.749 s

         *************************************************************
         *                GEOMETRY OPTIMIZATION CYCLE   5            *
         *************************************************************
---------------------------------
CARTESIAN COORDINATES (ANGSTROEM)
---------------------------------
  O      0.427490    0.642595   -0.248542
  O     -0.710587   -2.823247   -0.010351
  O      4.396123   -1.969066    0.287210
  O      4.674035    2.788517    0.043360
  O     -4.169163    1.288472    1.981197
  O     -5.845210    0.765986   -0.005798
  C      0.113002   -1.705946    0.309676
  C     -0.336128   -0.540093   -0.587182
  C      1.593366   -2.005815    0.057092
  C      2.406685   -0.732959    0.025156
  C      1.786797    0.514425   -0.119198
  C     -1.797008   -0.182083   -0.460648
  C      3.808096   -0.740771    0.157934
  C      2.511220    1.714380   -0.116548
  C     -2.288999    0.398785    0.720113
  C     -2.684390   -0.439523   -1.506293
  C      4.559029    0.435381    0.163297
  C      3.897639    1.663301    0.030164
  C     -3.638113    0.713989    0.858559
  C     -4.043567   -0.134043   -1.373163
  C     -4.532198    0.439569   -0.200979
  H     -0.032868   -1.403121    1.357946
  H     -0.116483   -0.810278   -1.629809
  H      1.669547   -2.549744   -0.895916
  H      1.971898   -2.683444    0.832479
  H      1.988669    2.659722   -0.231142
  H     -1.613646    0.622429    1.543474
  H     -0.453022   -3.550941    0.580283
  H     -2.322859   -0.882229   -2.430613
  H      5.639915    0.408296    0.269861
  H     -4.735263   -0.336387   -2.188522
  H      5.355958   -1.855348    0.396450
  H      4.107059    3.572088   -0.059489
  H     -3.458317    1.424025    2.631205
  H     -6.349207    0.529078   -0.803661

----------------------------
CARTESIAN COORDINATES (A.U.)
----------------------------
  NO LB      ZA    FRAG     MASS         X           Y           Z
   0 O     8.0000    0    15.999    0.807840    1.214328   -0.469676
   1 O     8.0000    0    15.999   -1.342816   -5.335164   -0.019560
   2 O     8.0000    0    15.999    8.307468   -3.720995    0.542749
   3 O     8.0000    0    15.999    8.832647    5.269533    0.081939
   4 O     8.0000    0    15.999   -7.878576    2.434859    3.743919
   5 O     8.0000    0    15.999  -11.045846    1.447503   -0.010957
   6 C     6.0000    0    12.011    0.213543   -3.223771    0.585204
   7 C     6.0000    0    12.011   -0.635190   -1.020627   -1.109613
   8 C     6.0000    0    12.011    3.011026   -3.790441    0.107888
   9 C     6.0000    0    12.011    4.547975   -1.385092    0.047538
  10 C     6.0000    0    12.011    3.376557    0.972122   -0.225252
  11 C     6.0000    0    12.011   -3.395853   -0.344087   -0.870498
  12 C     6.0000    0    12.011    7.196258   -1.399855    0.298452
  13 C     6.0000    0    12.011    4.745518    3.239708   -0.220245
  14 C     6.0000    0    12.011   -4.325581    0.753595    1.360816
  15 C     6.0000    0    12.011   -5.072762   -0.830579   -2.846482
  16 C     6.0000    0    12.011    8.615317    0.822750    0.308587
  17 C     6.0000    0    12.011    7.365470    3.143183    0.057002
  18 C     6.0000    0    12.011   -6.875037    1.349244    1.622441
  19 C     6.0000    0    12.011   -7.641235   -0.253305   -2.594902
  20 C     6.0000    0    12.011   -8.564614    0.830665   -0.379795
  21 H     1.0000    0     1.008   -0.062111   -2.651514    2.566146
  22 H     1.0000    0     1.008   -0.220121   -1.531204   -3.079892
  23 H     1.0000    0     1.008    3.154986   -4.818317   -1.693036
  24 H     1.0000    0     1.008    3.726347   -5.070975    1.573157
  25 H     1.0000    0     1.008    3.758039    5.026146   -0.436796
  26 H     1.0000    0     1.008   -3.049350    1.176221    2.916743
  27 H     1.0000    0     1.008   -0.856088   -6.710305    1.096576
  28 H     1.0000    0     1.008   -4.389567   -1.667171   -4.593193
  29 H     1.0000    0     1.008   10.657896    0.771568    0.509963
  30 H     1.0000    0     1.008   -8.948349   -0.635678   -4.135707
  31 H     1.0000    0     1.008   10.121294   -3.506099    0.749182
  32 H     1.0000    0     1.008    7.761217    6.750267   -0.112419
  33 H     1.0000    0     1.008   -6.535273    2.691018    4.972256
  34 H     1.0000    0     1.008  -11.998262    0.999812   -1.518700

--------------------------------
INTERNAL COORDINATES (ANGSTROEM)
--------------------------------
 O      0   0   0     0.000000000000     0.00000000     0.00000000
 O      1   0   0     3.655682708886     0.00000000     0.00000000
 O      1   2   0     4.780987882483    74.52765867     0.00000000
 O      1   2   3     4.766899774244   134.43808329   357.02439880
 O      1   2   3     5.149573870655    79.21099746   211.07173105
 O      5   1   2     2.651466649002   102.41841807   287.87926998
 C      2   1   3     1.424457526851    24.63309895    37.39474469
 C      1   2   3     1.447943170053    22.58175388   135.53307148
 C      7   2   1     1.531403962081   111.60847696   237.41337887
 C      9   7   2     1.510850628329   111.03236808   164.23513917
 C      1   2   3     1.371448560577   102.34594261   359.27437187
 C      8   1   2     1.509421042947   107.28247941   121.65103198
 C      3   1   2     1.367916463184    30.91580204   182.29324870
 C     11   1   2     1.401673050555   115.62149239   182.54996577
 C     12   8   1     1.404869416798   120.49523538   307.45520665
 C     12   8   1     1.395384247527   120.59139066   128.36384866
 C     13   3   1     1.395443645010   121.67713670   179.85389574
 C      4   1   2     1.367141921208    28.71658425     3.44846400
 C      5   1   2     1.368341994405    41.03324031   304.46681671
 C     16  12   8     1.399430389997   120.40360556   178.53475454
 C      6   5   1     1.366983090461    63.05666660    11.95426433
 H      7   2   1     1.100840662055   110.67661124   114.78175769
 H      8   1   2     1.099233644909   108.49486851   239.67390760
 H      9   7   2     1.099948009873   107.85946487    42.21248591
 H      9   7   2     1.097129391908   109.74870425   286.64363651
 H     14  11   1     1.086215291273   119.75073164   358.90974924
 H     15  12   8     1.088136715840   120.23778512     1.80277825
 H      2   1   3     0.971970148136   131.82794592    43.70825622
 H     16  12   8     1.086765823188   120.06272453   358.69394524
 H     17  13   3     1.086464112965   120.97975191     0.07651626
 H     20  16  12     1.088207283153   120.36301868   180.08658803
 H      3   1   2     0.972701812353   140.15925924   184.47448683
 H      4   1   2     0.972637194614    80.61282635   183.13863468
 H      5   1   2     0.972721128026    69.78806682   105.82663432
 H      6   5   1     0.972997102325   171.85622683    10.30843719

---------------------------
INTERNAL COORDINATES (A.U.)
---------------------------
 O      0   0   0     0.000000000000     0.00000000     0.00000000
 O      1   0   0     6.908239152306     0.00000000     0.00000000
 O      1   2   0     9.034757747488    74.52765867     0.00000000
 O      1   2   3     9.008135081172   134.43808329   357.02439880
 O      1   2   3     9.731284321935    79.21099746   211.07173105
 O      5   1   2     5.010545819839   102.41841807   287.87926998
 C      2   1   3     2.691834615152    24.63309895    37.39474469
 C      1   2   3     2.736216048881    22.58175388   135.53307148
 C      7   2   1     2.893934088734   111.60847696   237.41337887
 C      9   7   2     2.855093916806   111.03236808   164.23513917
 C      1   2   3     2.591662186252   102.34594261   359.27437187
 C      8   1   2     2.852392391948   107.28247941   121.65103198
 C      3   1   2     2.584987489500    30.91580204   182.29324870
 C     11   1   2     2.648778194848   115.62149239   182.54996577
 C     12   8   1     2.654818451670   120.49523538   307.45520665
 C     12   8   1     2.636894079414   120.59139066   128.36384866
 C     13   3   1     2.637006324389   121.67713670   179.85389574
 C      4   1   2     2.583523817286    28.71658425     3.44846400
 C      5   1   2     2.585791626968    41.03324031   304.46681671
 C     16  12   8     2.644540180581   120.40360556   178.53475454
 C      6   5   1     2.583223670672    63.05666660    11.95426433
 H      7   2   1     2.080287368369   110.67661124   114.78175769
 H      8   1   2     2.077250546069   108.49486851   239.67390760
 H      9   7   2     2.078600500211   107.85946487    42.21248591
 H      9   7   2     2.073274084181   109.74870425   286.64363651
 H     14  11   1     2.052649422983   119.75073164   358.90974924
 H     15  12   8     2.056280389201   120.23778512     1.80277825
 H      2   1   3     1.836757390324   131.82794592    43.70825622
 H     16  12   8     2.053689777530   120.06272453   358.69394524
 H     17  13   3     2.053119627838   120.97975191     0.07651626
 H     20  16  12     2.056413742097   120.36301868   180.08658803
 H      3   1   2     1.838140035316   140.15925924   184.47448683
 H      4   1   2     1.838017925486    80.61282635   183.13863468
 H      5   1   2     1.838176536648    69.78806682   105.82663432
 H      6   5   1     1.838698052493   171.85622683    10.30843719

------------------------------------------------------------------------------
                   ___                                                        
                  /   \      - P O W E R E D   B Y -                         
                 /     \                                                     
                 |  |  |   _    _      __       _____    __    __             
                 |  |  |  | |  | |    /  \     |  _  \  |  |  /  |          
                  \  \/   | |  | |   /    \    | | | |  |  | /  /          
                 / \  \   | |__| |  /  /\  \   | |_| |  |  |/  /          
                |  |  |   |  __  | /  /__\  \  |    /   |      \           
                |  |  |   | |  | | |   __   |  |    \   |  |\   \          
                \     /   | |  | | |  |  |  |  | |\  \  |  | \   \       
                 \___/    |_|  |_| |__|  |__|  |_| \__\ |__|  \__/        
                                                                              
                      - O R C A' S   B I G   F R I E N D -                    
                                      &                                       
                       - I N T E G R A L  F E E D E R -                       
                                                                              
 v1 FN, 2020, v2 2021, v3 2022-2024                                           
------------------------------------------------------------------------------


----------------------
SHARK INTEGRAL PACKAGE
----------------------

Number of atoms                             ...     35
Number of basis functions                   ...    322
Number of shells                            ...    154
Maximum angular momentum                    ...      2
Integral batch strategy                     ... SHARK/LIBINT Hybrid
RI-J (if used) integral strategy            ... SPLIT-RIJ (Revised 2003 algorithm where possible)
Printlevel                                  ...      1
Contraction scheme used                     ... SEGMENTED contraction
Prescreening option                         ... SCHWARTZ
   Thresh                                   ... 2.500e-11
   Tcut                                     ... 2.500e-12
   Tpresel                                  ... 2.500e-12 
Coulomb Range Separation                    ... NOT USED
Exchange Range Separation                   ... NOT USED
Multipole approximations                    ... NOT USED
Finite Nucleus Model                        ... NOT USED
CABS basis                                  ... NOT available
Auxiliary Coulomb fitting basis             ... AVAILABLE
   # of basis functions in Aux-J            ...   1183
   # of shells in Aux-J                     ...    385
   Maximum angular momentum in Aux-J        ...      4
Auxiliary J/K fitting basis                 ... NOT available
Auxiliary Correlation fitting basis         ... NOT available
Auxiliary 'external' fitting basis          ... NOT available

Checking pre-screening integrals            ... done (  0.0 sec) Dimension = 154
   => SHARK Basis and OBASIS are compatible. Storing Pre-screening
Shell pair information
Shell pair cut-off parameter TPreSel        ...   2.5e-12
Total number of shell pairs                 ...     11935
Shell pairs after pre-screening             ...      8441
Total number of primitive shell pairs       ...     69489
Primitive shell pairs kept                  ...     27523
          la=0 lb=0:   2813 shell pairs
          la=1 lb=0:   2886 shell pairs
          la=1 lb=1:    743 shell pairs
          la=2 lb=0:   1207 shell pairs
          la=2 lb=1:    650 shell pairs
          la=2 lb=2:    142 shell pairs

Checking whether 4 symmetric matrices of dimension 322 fit in memory
:Max Core in MB      =   4096.00
 MB in use           =     15.92
 MB left             =   4080.08
 MB needed           =      1.59
 Data fit in memory  = YES
Calculating RI/J V-Matrix + Cholesky decomp.... done (  0.4 sec)
Calculating Nuclear repulsion               ... done (  0.0 sec) ENN=   1636.480128233679 Eh

Diagonalization of the overlap matrix:
Smallest eigenvalue                        ... 4.032e-04
Time for diagonalization                   ...    0.010 sec
Threshold for overlap eigenvalues          ... 1.000e-07
Number of eigenvalues below threshold      ... 0
Time for construction of square roots      ...    0.020 sec
Total time needed                          ...    0.055 sec

-------------------
DFT GRID GENERATION
-------------------

General Integration Accuracy     IntAcc      ... 4.388
Radial Grid Type                 RadialGrid  ... OptM3 with GC (2021)
Angular Grid (max. ang.)         AngularGrid ... 4 (Lebedev-302)
Angular grid pruning method      GridPruning ... 4 (adaptive)
Weight generation scheme         WeightScheme... mBecke (2022)
Basis function cutoff            BFCut       ... 1.0000e-11
Integration weight cutoff        WCut        ... 1.0000e-14
Partially contracted basis set               ... off
Rotationally invariant grid construction     ... off
Angular grids for H and He will be reduced by one unit

Total number of grid points                  ...   170390
Total number of batches                      ...     2681
Average number of points per batch           ...       63
Average number of grid points per atom       ...     4868

--------------------
COSX GRID GENERATION
--------------------

GRIDX 1
-------
General Integration Accuracy     IntAcc      ... 3.816
Radial Grid Type                 RadialGrid  ... OptM3 with GC (2021)
Angular Grid (max. ang.)         AngularGrid ... 1 (Lebedev-50)
Angular grid pruning method      GridPruning ... 4 (adaptive)
Weight generation scheme         WeightScheme... mBecke (2022)
Basis function cutoff            BFCut       ... 1.0000e-11
Integration weight cutoff        WCut        ... 1.0000e-14
Partially contracted basis set               ... on
Rotationally invariant grid construction     ... off
Angular grids for H and He will be reduced by one unit

Total number of grid points                  ...    21678
Total number of batches                      ...      190
Average number of points per batch           ...      114
Average number of grid points per atom       ...      619
UseSFitting                                  ... on

GRIDX 2
-------
General Integration Accuracy     IntAcc      ... 4.020
Radial Grid Type                 RadialGrid  ... OptM3 with GC (2021)
Angular Grid (max. ang.)         AngularGrid ... 2 (Lebedev-110)
Angular grid pruning method      GridPruning ... 4 (adaptive)
Weight generation scheme         WeightScheme... mBecke (2022)
Basis function cutoff            BFCut       ... 1.0000e-11
Integration weight cutoff        WCut        ... 1.0000e-14
Partially contracted basis set               ... on
Rotationally invariant grid construction     ... off
Angular grids for H and He will be reduced by one unit

Total number of grid points                  ...    47472
Total number of batches                      ...      389
Average number of points per batch           ...      122
Average number of grid points per atom       ...     1356
UseSFitting                                  ... on

GRIDX 3
-------
General Integration Accuracy     IntAcc      ... 4.338
Radial Grid Type                 RadialGrid  ... OptM3 with GC (2021)
Angular Grid (max. ang.)         AngularGrid ... 3 (Lebedev-194)
Angular grid pruning method      GridPruning ... 4 (adaptive)
Weight generation scheme         WeightScheme... mBecke (2022)
Basis function cutoff            BFCut       ... 1.0000e-11
Integration weight cutoff        WCut        ... 1.0000e-14
Partially contracted basis set               ... on
Rotationally invariant grid construction     ... off
Angular grids for H and He will be reduced by one unit

Total number of grid points                  ...   104067
Total number of batches                      ...      832
Average number of points per batch           ...      125
Average number of grid points per atom       ...     2973
UseSFitting                                  ... on
Grids setup in   7.4 sec
Initializing property integral containers    ... done (  0.0 sec)

SHARK setup successfully completed in   8.7 seconds

Maximum memory used throughout the entire STARTUP-calculation: 72.9 MB
Occupation numbers will be reassigned to an Aufbau configuration
             **** ENERGY FILE WAS UPDATED (Inputs/Catechin_CPCM.en.tmp) ****
Finished Guess after   0.6 sec
Maximum memory used throughout the entire GUESS-calculation: 26.1 MB
--------------------
CPCM SOLVATION MODEL
--------------------
CPCM parameters:
  Epsilon                                         ...      80.1510
  Refrac                                          ...       1.3328
  Rsolv                                           ...       1.3000
  Surface type                                    ... GAUSSIAN VDW
  Discretization scheme                           ... Constant charge density
    Threshold for H atoms                         ...       5.0000 (charges/Ang^2)
    Threshold for non-H atoms                     ...       5.0000 (charges/Ang^2)
  Epsilon function type                           ...         CPCM
Solvent:                                          ... WATER
Radii:
  Scheme                                          ... Element-dependent radii
  Radius for O  used is    3.4469 Bohr (=   1.8240 Ang.)
  Radius for C  used is    3.8550 Bohr (=   2.0400 Ang.)
  Radius for H  used is    2.4944 Bohr (=   1.3200 Ang.)
Calculating surface                               ...        done! (  0.0s)
Cavity surface points                             ...         3017
Cavity Volume                                     ...    2162.9089
Cavity Surface-area                               ...    1121.2678
Calculating surface distance matrix               ...        done! (  0.1s)
Performing Cholesky decomposition & store         ...        done! (  0.8s)
Overall time for CPCM initialization              ...                 0.9s

----------------------------------------D-I-I-S--------------------------------------------
Iteration    Energy (Eh)           Delta-E    RMSDP     MaxDP     DIISErr   Damp  Time(sec)
-------------------------------------------------------------------------------------------
               ***  Starting incremental Fock matrix formation  ***
    1    -1030.7767685178894226     0.00e+00  7.85e-05  2.42e-03  1.22e-02  0.700  22.5
    2    -1030.7773109984684652    -5.42e-04  7.51e-05  2.17e-03  9.78e-03  0.700  11.5
                               ***Turning on AO-DIIS***
    3    -1030.7777467718649405    -4.36e-04  6.44e-05  1.77e-03  7.42e-03  0.700  11.8
    4    -1030.7780715417695774    -3.25e-04  1.67e-04  4.39e-03  5.41e-03  0.000  11.4
                              *** Initializing SOSCF ***
---------------------------------------S-O-S-C-F--------------------------------------
Iteration    Energy (Eh)           Delta-E    RMSDP     MaxDP     MaxGrad    Time(sec)
--------------------------------------------------------------------------------------
    5    -1030.7788922079987515    -8.21e-04  1.13e-05  2.91e-04  2.98e-04    11.2
               *** Restarting incremental Fock matrix formation ***
    6    -1030.7788916698548292     5.38e-07  7.38e-06  2.21e-04  5.70e-05    22.0
    7    -1030.7788920696596051    -4.00e-07  2.41e-06  6.59e-05  1.07e-05    13.1
    8    -1030.7788920730497466    -3.39e-09  1.15e-06  3.87e-05  2.14e-05    12.0
                 **** Energy Check signals convergence ****

               *****************************************************
               *                     SUCCESS                       *
               *           SCF CONVERGED AFTER   8 CYCLES          *
               *****************************************************

Recomputing exchange energy using gridx3       ... done (   29.696 sec)
Old exchange energy                            :    -26.465923869 Eh
New exchange energy                            :    -26.465952224 Eh
Exchange energy change after final integration :     -0.000028355 Eh
Total energy after final integration           :  -1030.778920450 Eh
             **** ENERGY FILE WAS UPDATED (Inputs/Catechin_CPCM.en.tmp) ****

----------------
TOTAL SCF ENERGY
----------------

Total Energy       :      -1030.77892045023918 Eh          -28048.92041 eV

Components:
Nuclear Repulsion  :       1636.48012823367867 Eh           44530.88820 eV
Electronic Energy  :      -2667.21609318372475 Eh          -72578.63972 eV
One Electron Energy:      -4661.03936127256202 Eh         -126833.32910 eV
Two Electron Energy:       1993.82326808883727 Eh           54254.68938 eV
CPCM Dielectric    :         -0.04292714498135 Eh              -1.16811 eV

Virial components:
Potential Energy   :      -2055.59393084892736 Eh          -55935.55457 eV
Kinetic Energy     :       1024.81501039868817 Eh           27886.63416 eV
Virial Ratio       :          2.00581949912036

DFT components:
N(Alpha)           :       76.000004096758 electrons
N(Beta)            :       76.000004096758 electrons
N(Total)           :      152.000008193516 electrons
E(X)               :     -105.197683568852 Eh       
E(C)               :       -6.208426437945 Eh       
E(XC)              :     -111.406110006797 Eh       

CPCM Solvation Model Properties:
Surface-charge          :         -0.01554540519254
Corrected charge        :         -0.00000000000000
Outlying charge corr.   :          0.00001309546594 Eh               0.00036 eV
Free-energy (cav+disp)  :  This term is not implemented in the current solvation scheme

---------------
SCF CONVERGENCE
---------------

  Last Energy change         ...    3.3901e-09  Tolerance :   1.0000e-08
  Last MAX-Density change    ...    3.8683e-05  Tolerance :   1.0000e-07
  Last RMS-Density change    ...    1.1482e-06  Tolerance :   5.0000e-09
  Last DIIS Error            ...    2.9816e-04  Tolerance :   5.0000e-07
  Last Orbital Gradient      ...    2.1409e-05  Tolerance :   1.0000e-05
  Last Orbital Rotation      ...    3.4762e-05  Tolerance :   1.0000e-05


Total SCF time: 0 days 0 hours 2 min 40 sec 
Finished LeanSCF after 161.7 sec

Maximum memory used throughout the entire LEANSCF-calculation: 92.5 MB

------------------------------------------------------------------------------
                         ORCA PROPERTY INTEGRAL CALCULATIONS
------------------------------------------------------------------------------

GBWName                                   ... Inputs/Catechin_CPCM.gbw
Number of atoms                           ...     35
Number of basis functions                 ...    322
Max core memory                           ...   4096 MB

Dipole integrals                          ... YES
Quadrupole integrals                      ...  NO
Linear momentum integrals                 ...  NO
Angular momentum integrals                ...  NO
Higher moments length integrals           ...  NO
Higher moments velocity integrals         ...  NO
Kinetic energy integrals                  ...  NO
GIAO right hand sides                     ...  NO
GIAO dipole derivative integrals          ...  NO
SOC integrals                             ...  NO
EPR diamagnetic integrals (GIAO)          ...  NO
EPR gauge integrals                       ...  NO
Field gradient integrals                  ...  NO (   0 nuclei)
Spin-dipole/Fermi contact integrals       ...  NO (   0 nuclei)
Contact density integrals                 ...  NO (   0 nuclei)
Nucleus-orbit integrals                   ...  NO (   0 nuclei)
Geometric perturbations                   ...  NO (  35 nuclei)

Choice of electric origin   ... Center of mass
Position of electric origin ... ( -0.0110, -0.0067,  0.0494) 
Choice of magnetic origin   ... GIAO
Position of magnetic origin ... (  0.0000,  0.0000,  0.0000) 

Calculating integrals                     ... Electric Dipole (Length)     done (  0.1 sec)

Property integrals calculated in   0.1 sec

Maximum memory used throughout the entire PROPINT-calculation: 25.8 MB

-------------------------   --------------------
FINAL SINGLE POINT ENERGY     -1030.778920450239
-------------------------   --------------------

------------------------------------------------------------------------------
                         ORCA SCF GRADIENT CALCULATION
------------------------------------------------------------------------------

Nuc. rep. gradient        (SHARK) ... done (  0.0 sec)
HCore & Overlap gradient  (SHARK) ... done (  0.9 sec)
Split-RIJ-J gradient      (SHARK) ... done (  4.8 sec)
COSX-gradient                     ... done ( 65.6 sec)
XC gradient                       ... done ( 14.3 sec)
CPCM gradient                     ... done (  6.0 sec)

------------------
CARTESIAN GRADIENT
------------------

   1   O   :    0.000500770    0.000139599    0.000088696
   2   O   :    0.000193807   -0.000410150   -0.000557126
   3   O   :   -0.000125584   -0.000054922    0.000035199
   4   O   :   -0.000012069   -0.000188630    0.000070946
   5   O   :   -0.000339658    0.000128408   -0.000228259
   6   O   :    0.000229367    0.000089754    0.000381909
   7   C   :    0.000493119    0.000382367    0.000174873
   8   C   :   -0.001027424   -0.000376042    0.000176082
   9   C   :   -0.000031056   -0.000015546    0.000103982
  10   C   :   -0.000413457   -0.000466969   -0.000073910
  11   C   :    0.000168458    0.000481226    0.000042761
  12   C   :    0.000319068    0.000172205   -0.000159931
  13   C   :    0.000354589    0.000535874    0.000013773
  14   C   :   -0.000311466    0.000057042   -0.000028584
  15   C   :   -0.000107731   -0.000243701   -0.000473838
  16   C   :   -0.000138282    0.000075872   -0.000092938
  17   C   :    0.000076051   -0.000157017    0.000010733
  18   C   :   -0.000158093    0.000113425   -0.000031642
  19   C   :    0.000932195    0.000189585    0.000980367
  20   C   :    0.000346361    0.000120007    0.000357233
  21   C   :   -0.000801544   -0.000309122   -0.001048479
  22   H   :    0.000240266    0.000001300    0.000004630
  23   H   :    0.000069219   -0.000143317    0.000014471
  24   H   :   -0.000101838   -0.000056278    0.000021185
  25   H   :   -0.000008830    0.000023226   -0.000066221
  26   H   :    0.000051952   -0.000014364   -0.000006792
  27   H   :   -0.000138817    0.000059279    0.000161874
  28   H   :   -0.000307044    0.000053964    0.000217407
  29   H   :    0.000009589   -0.000008949    0.000011749
  30   H   :   -0.000025658   -0.000022107   -0.000015398
  31   H   :   -0.000088418    0.000032678    0.000050989
  32   H   :    0.000032991   -0.000065618   -0.000043886
  33   H   :    0.000013578    0.000021368   -0.000052438
  34   H   :    0.000069648   -0.000100189    0.000037137
  35   H   :    0.000035939   -0.000044258   -0.000076555

Difference to translation invariance:
           :   -0.0000000001    0.0000000000    0.0000000001

Difference to rotation invariance:
           :    0.0002821383    0.0012559785   -0.0001621253

Norm of the Cartesian gradient     ...    0.0029907795
RMS gradient                       ...    0.0002918702
MAX gradient                       ...    0.0010484789

-------
TIMINGS
-------

Total SCF gradient time     ....       91.752 sec

Densities                   ....       0.002 sec  (  0.0%)
One electron gradient       ....       0.948 sec  (  1.0%)
RI-J Coulomb gradient       ....       4.834 sec  (  5.3%)
COSX gradient               ....      65.611 sec  ( 71.5%)
XC gradient                 ....      14.326 sec  ( 15.6%)
CPCM gradient               ....       5.992 sec  (  6.5%)
   A-Matrix (El+Nuc)        ....       0.170 sec  (  0.2%)
   Potential                ....       5.822 sec  (  6.3%)

Maximum memory used throughout the entire SCFGRAD-calculation: 56.7 MB
------------------------------------------------------------------------------
                         ORCA GEOMETRY RELAXATION STEP
------------------------------------------------------------------------------

Reading the OPT-File                    .... done
Getting information on internals        .... done
Copying old internal coords+grads       .... done
Making the new internal coordinates     .... (2022 redundants) done
Validating the new internal coordinates .... (2022 redundants) done
Calculating the B-matrix                .... done
Calculating the G,G- and P matrices     .... done
Transforming gradient to internals      .... done
Projecting the internal gradient        .... done
Number of atoms                         ....  35
Number of internal coordinates          .... 183
Current Energy                          .... -1030.778920450 Eh
Current gradient norm                   ....     0.002990779 Eh/bohr
Maximum allowed component of the step   ....  0.300
Current trust radius                    ....  0.450
Updating the Hessian (BFGS)             .... done
Forming the augmented Hessian           .... done
Diagonalizing the augmented Hessian     .... done
Last element of RFO vector              ....  0.997691402
Lowest eigenvalues of augmented Hessian:
 -0.000033530  0.004917951  0.013621642  0.015565507  0.019423902
Length of the computed step             ....  0.068067865
The final length of the internal step   ....  0.068067865
Converting the step to Cartesian space:
 Initial RMS(Int)=    0.0050317214
Transforming coordinates:
 Iter   0:  RMS(Cart)=    0.0215132638 RMS(Int)=    0.4641243542
done
Storing new coordinates                 .... done
The predicted energy change is          ....    -0.000016843
Previously predicted energy change      ....    -0.000053780
Actually observed energy change         ....    -0.000066470
Ratio of predicted to observed change   ....     1.235973238
New trust radius                        ....     0.675000000

                                .--------------------.
          ----------------------|Geometry convergence|-------------------------
          Item                value                   Tolerance       Converged
          ---------------------------------------------------------------------
          Energy change      -0.0000664704            0.0000050000      NO
          RMS gradient        0.0001349132            0.0001000000      NO
          MAX gradient        0.0005759277            0.0003000000      NO
          RMS step            0.0050317214            0.0020000000      NO
          MAX step            0.0273568245            0.0040000000      NO
          -------------------------------------------------------------------------
          ........................................................
          Max(Bonds)      0.0009      Max(Angles)    0.15
          Max(Dihed)        1.57      Max(Improp)    0.00
          ---------------------------------------------------------------------

The optimization has not yet converged - more geometry cycles are needed


    ---------------------------------------------------------------------------
                         Redundant Internal Coordinates
                            (Angstroem and degrees)

        Definition                    Value    dE/dq     Step     New-Value
    ----------------------------------------------------------------------------
     1. B(C   6,O   1)                1.4245  0.000420 -0.0009    1.4235   
     2. B(C   7,O   0)                1.4479  0.000368 -0.0005    1.4475   
     3. B(C   7,C   6)                1.5379  0.000024  0.0007    1.5387   
     4. B(C   8,C   6)                1.5314 -0.000241  0.0001    1.5315   
     5. B(C   9,C   8)                1.5109  0.000037 -0.0005    1.5103   
     6. B(C  10,C   9)                1.4004  0.000181 -0.0002    1.4002   
     7. B(C  10,O   0)                1.3714 -0.000286  0.0002    1.3717   
     8. B(C  11,C   7)                1.5094 -0.000296  0.0002    1.5096   
     9. B(C  12,C   9)                1.4077  0.000145  0.0001    1.4078   
    10. B(C  12,O   2)                1.3679  0.000067 -0.0000    1.3679   
    11. B(C  13,C  10)                1.4017 -0.000154  0.0001    1.4018   
    12. B(C  14,C  11)                1.4049 -0.000050  0.0004    1.4053   
    13. B(C  15,C  11)                1.3954  0.000034 -0.0001    1.3953   
    14. B(C  16,C  12)                1.3954 -0.000196 -0.0002    1.3953   
    15. B(C  17,O   3)                1.3671 -0.000136 -0.0000    1.3671   
    16. B(C  17,C  16)                1.4011  0.000096 -0.0001    1.4009   
    17. B(C  17,C  13)                1.3951  0.000011 -0.0002    1.3949   
    18. B(C  18,C  14)                1.3923 -0.000242 -0.0002    1.3922   
    19. B(C  18,O   4)                1.3683 -0.000048 -0.0003    1.3681   
    20. B(C  19,C  15)                1.3994 -0.000066  0.0002    1.3996   
    21. B(C  20,C  19)                1.3935 -0.000269 -0.0002    1.3933   
    22. B(C  20,C  18)                1.4133  0.000576  0.0001    1.4134   
    23. B(C  20,O   5)                1.3670 -0.000205 -0.0002    1.3668   
    24. B(H  21,C   6)                1.1008 -0.000025  0.0001    1.1010   
    25. B(H  22,C   7)                1.0992  0.000036 -0.0000    1.0992   
    26. B(H  23,C   8)                1.0999 -0.000002 -0.0000    1.0999   
    27. B(H  24,C   8)                1.0971 -0.000061  0.0001    1.0972   
    28. B(H  25,C  13)                1.0862 -0.000037 -0.0000    1.0862   
    29. B(H  26,C  14)                1.0881  0.000045 -0.0001    1.0880   
    30. B(H  27,O   1)                0.9720  0.000012  0.0000    0.9720   
    31. B(H  28,C  15)                1.0868  0.000002 -0.0000    1.0868   
    32. B(H  29,C  16)                1.0865 -0.000026 -0.0000    1.0865   
    33. B(H  30,C  19)                1.0882  0.000016 -0.0000    1.0882   
    34. B(H  31,O   2)                0.9727  0.000021 -0.0000    0.9727   
    35. B(H  32,O   3)                0.9726  0.000015 -0.0000    0.9726   
    36. B(H  33,O   4)                0.9727  0.000054 -0.0001    0.9726   
    37. B(H  34,O   5)                0.9730  0.000063 -0.0001    0.9729   
    38. A(C   7,O   0,C  10)          117.93  0.000147   -0.09    117.84   
    39. A(C   6,O   1,H  27)          107.31  0.000158    0.04    107.35   
    40. A(C  12,O   2,H  31)          109.26  0.000120    0.01    109.27   
    41. A(C  17,O   3,H  32)          109.33  0.000039    0.01    109.34   
    42. A(C  18,O   4,H  33)          108.85 -0.000115    0.04    108.89   
    43. A(C  20,O   5,H  34)          108.80 -0.000154    0.05    108.85   
    44. A(O   1,C   6,C   8)          111.61 -0.000011    0.01    111.62   
    45. A(C   8,C   6,H  21)          109.82 -0.000152    0.06    109.88   
    46. A(C   7,C   6,C   8)          109.55  0.000155   -0.14    109.41   
    47. A(O   1,C   6,C   7)          107.14 -0.000173    0.15    107.29   
    48. A(C   7,C   6,H  21)          107.94  0.000001   -0.08    107.86   
    49. A(O   1,C   6,H  21)          110.68  0.000183   -0.01    110.67   
    50. A(C   6,C   7,C  11)          114.43  0.000446   -0.10    114.33   
    51. A(C  11,C   7,H  22)          109.34  0.000008    0.03    109.37   
    52. A(C   6,C   7,H  22)          107.97 -0.000175    0.01    107.97   
    53. A(O   0,C   7,C  11)          107.28 -0.000214    0.08    107.36   
    54. A(O   0,C   7,H  22)          108.49  0.000050    0.00    108.50   
    55. A(O   0,C   7,C   6)          109.20 -0.000125   -0.01    109.18   
    56. A(C   6,C   8,C   9)          111.03 -0.000127   -0.03    111.01   
    57. A(C   9,C   8,H  24)          110.46  0.000027   -0.05    110.41   
    58. A(C   6,C   8,H  24)          109.75  0.000051    0.03    109.78   
    59. A(C   9,C   8,H  23)          111.16  0.000117    0.05    111.21   
    60. A(C   6,C   8,H  23)          107.86 -0.000041   -0.02    107.84   
    61. A(H  23,C   8,H  24)          106.44 -0.000022    0.02    106.46   
    62. A(C   8,C   9,C  10)          120.95  0.000180   -0.01    120.95   
    63. A(C  10,C   9,C  12)          117.09 -0.000233    0.01    117.09   
    64. A(C   8,C   9,C  12)          121.95  0.000053   -0.00    121.95   
    65. A(C   9,C  10,C  13)          122.25  0.000222   -0.01    122.23   
    66. A(O   0,C  10,C  13)          115.62 -0.000045   -0.02    115.60   
    67. A(O   0,C  10,C   9)          122.12 -0.000177    0.03    122.15   
    68. A(C  14,C  11,C  15)          118.91 -0.000016    0.01    118.92   
    69. A(C   7,C  11,C  15)          120.59  0.000172   -0.03    120.56   
    70. A(C   7,C  11,C  14)          120.50 -0.000155    0.02    120.51   
    71. A(O   2,C  12,C   9)          116.22 -0.000290    0.03    116.25   
    72. A(C   9,C  12,C  16)          122.10  0.000111   -0.00    122.10   
    73. A(O   2,C  12,C  16)          121.68  0.000179   -0.03    121.65   
    74. A(C  17,C  13,H  25)          121.40  0.000038   -0.00    121.40   
    75. A(C  10,C  13,H  25)          119.75  0.000116   -0.00    119.75   
    76. A(C  10,C  13,C  17)          118.85 -0.000154    0.01    118.85   
    77. A(C  11,C  14,C  18)          121.10  0.000140   -0.04    121.06   
    78. A(C  11,C  14,H  26)          120.24  0.000150    0.01    120.25   
    79. A(C  18,C  14,H  26)          118.66 -0.000291    0.02    118.68   
    80. A(C  11,C  15,C  19)          120.40 -0.000049    0.01    120.41   
    81. A(C  19,C  15,H  28)          119.53  0.000041    0.00    119.53   
    82. A(C  11,C  15,H  28)          120.06  0.000008   -0.01    120.06   
    83. A(C  17,C  16,H  29)          120.05  0.000041    0.04    120.09   
    84. A(C  12,C  16,H  29)          120.98 -0.000003   -0.03    120.95   
    85. A(C  12,C  16,C  17)          118.97 -0.000037   -0.00    118.96   
    86. A(C  13,C  17,C  16)          120.74  0.000093    0.00    120.75   
    87. A(O   3,C  17,C  16)          116.89 -0.000191   -0.01    116.89   
    88. A(O   3,C  17,C  13)          122.36  0.000099    0.00    122.36   
    89. A(C  14,C  18,C  20)          119.64 -0.000138    0.02    119.66   
    90. A(O   4,C  18,C  20)          116.81 -0.000311    0.01    116.82   
    91. A(O   4,C  18,C  14)          123.55  0.000449   -0.03    123.52   
    92. A(C  20,C  19,H  30)          118.94 -0.000173   -0.05    118.89   
    93. A(C  15,C  19,H  30)          120.36  0.000031    0.07    120.43   
    94. A(C  15,C  19,C  20)          120.69  0.000142   -0.02    120.68   
    95. A(O   5,C  20,C  18)          117.02 -0.000315    0.03    117.04   
    96. A(C  18,C  20,C  19)          119.26 -0.000079    0.01    119.27   
    97. A(O   5,C  20,C  19)          123.73  0.000394   -0.04    123.69   
    98. D(C   8,C   6,O   1,H  27)     62.34  0.000169   -1.49     60.85   
    99. D(H  21,C   6,O   1,H  27)    -60.29  0.000242   -1.57    -61.86   
   100. D(C   7,C   6,O   1,H  27)   -177.75  0.000242   -1.55   -179.30   
   101. D(O   0,C   7,C   6,O   1)    177.02  0.000077   -0.28    176.75   
   102. D(C  11,C   7,O   0,C  10)    171.51  0.000202    0.02    171.53   
   103. D(H  22,C   7,O   0,C  10)    -70.47  0.000121    0.09    -70.37   
   104. D(C  11,C   7,C   6,O   1)     56.78  0.000147   -0.30     56.48   
   105. D(O   0,C   7,C   6,C   8)    -61.75  0.000049   -0.25    -62.00   
   106. D(C  11,C   7,C   6,H  21)    -62.44  0.000025   -0.33    -62.77   
   107. D(C  11,C   7,C   6,C   8)    178.01  0.000118   -0.28    177.74   
   108. D(C   6,C   7,O   0,C  10)     46.98 -0.000131    0.10     47.07   
   109. D(O   0,C   7,C   6,H  21)     57.80 -0.000045   -0.30     57.49   
   110. D(C   9,C   8,C   6,H  21)    -72.64  0.000047    0.32    -72.32   
   111. D(C   9,C   8,C   6,O   1)    164.24 -0.000071    0.28    164.52   
   112. D(C   9,C   8,C   6,C   7)     45.74  0.000050    0.18     45.93   
   113. D(H  23,C   8,C   6,O   1)     42.21 -0.000110    0.25     42.46   
   114. D(H  23,C   8,C   6,C   7)    -76.28  0.000012    0.15    -76.13   
   115. D(H  23,C   8,C   6,H  21)    165.33  0.000008    0.29    165.63   
   116. D(C  12,C   9,C   8,C   6)    163.15 -0.000004   -0.13    163.02   
   117. D(C  10,C   9,C   8,H  23)    104.20 -0.000051   -0.06    104.14   
   118. D(C  10,C   9,C   8,H  24)   -137.88  0.000011   -0.04   -137.92   
   119. D(C  12,C   9,C   8,H  23)    -76.77 -0.000063   -0.14    -76.91   
   120. D(C  10,C   9,C   8,C   6)    -15.88  0.000007   -0.06    -15.94   
   121. D(C  13,C  10,C   9,C  12)     -0.81  0.000016   -0.06     -0.87   
   122. D(C  13,C  10,C   9,C   8)    178.26  0.000008   -0.13    178.14   
   123. D(O   0,C  10,C   9,C  12)   -179.62 -0.000017   -0.05   -179.67   
   124. D(O   0,C  10,C   9,C   8)     -0.55 -0.000025   -0.12     -0.67   
   125. D(C  13,C  10,O   0,C   7)    165.06  0.000022    0.11    165.17   
   126. D(C   9,C  10,O   0,C   7)    -16.05  0.000056    0.10    -15.96   
   127. D(C  14,C  11,C   7,C   6)     68.75 -0.000100    1.04     69.79   
   128. D(C  14,C  11,C   7,O   0)    -52.54 -0.000072    1.06    -51.48   
   129. D(C  15,C  11,C   7,C   6)   -110.34 -0.000116    1.24   -109.10   
   130. D(C  15,C  11,C   7,O   0)    128.36 -0.000087    1.27    129.63   
   131. D(C  14,C  11,C   7,H  22)   -170.02 -0.000015    1.00   -169.01   
   132. D(C  16,C  12,C   9,C  10)      0.74 -0.000007    0.05      0.80   
   133. D(C  16,C  12,C   9,C   8)   -178.32  0.000000    0.12   -178.20   
   134. D(O   2,C  12,C   9,C  10)   -179.50 -0.000005    0.05   -179.45   
   135. D(O   2,C  12,C   9,C   8)      1.43  0.000002    0.12      1.55   
   136. D(C  16,C  12,O   2,H  31)      1.33 -0.000034    0.26      1.60   
   137. D(C   9,C  12,O   2,H  31)   -178.42 -0.000036    0.27   -178.15   
   138. D(H  25,C  13,C  10,C   9)   -179.97 -0.000019    0.03   -179.94   
   139. D(C  17,C  13,C  10,O   0)    179.12  0.000013    0.02    179.13   
   140. D(C  17,C  13,C  10,C   9)      0.23 -0.000016    0.02      0.26   
   141. D(H  25,C  13,C  10,O   0)     -1.09  0.000011    0.02     -1.07   
   142. D(H  26,C  14,C  11,C  15)   -179.09 -0.000005   -0.00   -179.09   
   143. D(H  26,C  14,C  11,C   7)      1.80 -0.000023    0.19      2.00   
   144. D(C  18,C  14,C  11,C  15)      0.16 -0.000012   -0.02      0.15   
   145. D(C  18,C  14,C  11,C   7)   -178.94 -0.000030    0.18   -178.76   
   146. D(H  28,C  15,C  11,C  14)    179.59  0.000005    0.00    179.59   
   147. D(H  28,C  15,C  11,C   7)     -1.31  0.000020   -0.20     -1.50   
   148. D(C  19,C  15,C  11,C  14)     -0.57  0.000007    0.01     -0.56   
   149. D(C  19,C  15,C  11,C   7)    178.53  0.000021   -0.19    178.35   
   150. D(H  29,C  16,C  12,C   9)    179.82  0.000003   -0.02    179.79   
   151. D(H  29,C  16,C  12,O   2)      0.08  0.000002   -0.02      0.06   
   152. D(C  17,C  16,C  12,C   9)     -0.10 -0.000004   -0.01     -0.11   
   153. D(C  17,C  16,C  12,O   2)   -179.85 -0.000005   -0.01   -179.85   
   154. D(C  16,C  17,C  13,H  25)   -179.34  0.000011    0.02   -179.32   
   155. D(C  16,C  17,C  13,C  10)      0.45  0.000008    0.02      0.47   
   156. D(O   3,C  17,C  13,H  25)      0.24  0.000005    0.01      0.25   
   157. D(O   3,C  17,C  13,C  10)   -179.97  0.000003    0.02   -179.95   
   158. D(C  16,C  17,O   3,H  32)    179.77 -0.000046    0.23    180.00   
   159. D(O   3,C  17,C  16,C  12)    179.88  0.000005   -0.03    179.86   
   160. D(C  13,C  17,O   3,H  32)      0.17 -0.000041    0.24      0.41   
   161. D(C  13,C  17,C  16,H  29)    179.57 -0.000005   -0.02    179.55   
   162. D(C  13,C  17,C  16,C  12)     -0.51  0.000001   -0.03     -0.54   
   163. D(O   3,C  17,C  16,H  29)     -0.04 -0.000001   -0.01     -0.05   
   164. D(C  20,C  18,C  14,H  26)    179.64  0.000009    0.01    179.64   
   165. D(C  20,C  18,C  14,C  11)      0.37  0.000012    0.02      0.39   
   166. D(O   4,C  18,C  14,H  26)     -0.27  0.000017   -0.02     -0.29   
   167. D(O   4,C  18,C  14,C  11)   -179.54  0.000021   -0.01   -179.54   
   168. D(C  20,C  18,O   4,H  33)    179.91 -0.000073    0.29    180.19   
   169. D(C  14,C  18,O   4,H  33)     -0.18 -0.000081    0.31      0.13   
   170. D(H  30,C  19,C  15,H  28)     -0.07  0.000004   -0.01     -0.08   
   171. D(H  30,C  19,C  15,C  11)   -179.91  0.000003   -0.02   -179.94   
   172. D(C  20,C  19,C  15,H  28)   -179.71 -0.000001    0.00   -179.71   
   173. D(C  20,C  19,C  15,C  11)      0.45 -0.000003   -0.01      0.44   
   174. D(C  18,C  20,C  19,H  30)   -179.55 -0.000003    0.02   -179.53   
   175. D(C  18,C  20,C  19,C  15)      0.09  0.000003    0.01      0.10   
   176. D(O   5,C  20,C  19,H  30)      0.18  0.000003   -0.01      0.17   
   177. D(O   5,C  20,C  19,C  15)    179.82  0.000009   -0.02    179.80   
   178. D(C  19,C  20,C  18,C  14)     -0.50 -0.000008   -0.02     -0.51   
   179. D(C  19,C  20,C  18,O   4)    179.42 -0.000015    0.01    179.43   
   180. D(O   5,C  20,C  18,C  14)    179.76 -0.000015    0.01    179.77   
   181. D(O   5,C  20,C  18,O   4)     -0.33 -0.000022    0.04     -0.29   
   182. D(C  19,C  20,O   5,H  34)      0.19 -0.000001   -0.01      0.18   
   183. D(C  18,C  20,O   5,H  34)    179.92  0.000006   -0.04    179.88   
    ----------------------------------------------------------------------------

Geometry step timings:
Preparation and reading OPT file:      0.003 s ( 3.142 %)
Internal coordinates            :      0.002 s ( 1.506 %)
B/P matrices and projection     :      0.005 s ( 5.448 %)
Hessian update/contruction      :      0.022 s (22.282 %)
Making the step                 :      0.005 s ( 5.458 %)
Converting the step to Cartesian:      0.001 s ( 1.278 %)
Storing new data                :      0.004 s ( 4.075 %)
Checking convergence            :      0.004 s ( 3.665 %)
Final printing                  :      0.053 s (53.144 %)
Total time                      :      0.100 s

Time for energy+gradient        :    263.914 s
Time for complete geometry iter :    264.589 s

         *************************************************************
         *                GEOMETRY OPTIMIZATION CYCLE   6            *
         *************************************************************
---------------------------------
CARTESIAN COORDINATES (ANGSTROEM)
---------------------------------
  O      0.427988    0.646843   -0.243748
  O     -0.713881   -2.818715   -0.012792
  O      4.394490   -1.973355    0.272692
  O      4.677350    2.784875    0.062936
  O     -4.166288    1.315267    1.969316
  O     -5.848247    0.754785   -0.003099
  C      0.111769   -1.703595    0.305477
  C     -0.335583   -0.533615   -0.588127
  C      1.590933   -2.004723    0.047023
  C      2.405706   -0.733316    0.020874
  C      1.787289    0.515516   -0.115179
  C     -1.797093   -0.177581   -0.461172
  C      3.807307   -0.743776    0.152546
  C      2.513401    1.714564   -0.104342
  C     -2.286997    0.417919    0.713672
  C     -2.687560   -0.455262   -1.498847
  C      4.559579    0.431276    0.165747
  C      3.899584    1.660780    0.041739
  C     -3.637139    0.727614    0.852940
  C     -4.048008   -0.155289   -1.364272
  C     -4.534388    0.432620   -0.198526
  H     -0.031006   -1.401182    1.354445
  H     -0.114557   -0.799857   -1.631439
  H      1.663146   -2.543404   -0.909261
  H      1.971143   -2.686989    0.817657
  H      1.992030    2.661344   -0.212198
  H     -1.609351    0.657277    1.530537
  H     -0.439504   -3.555160    0.559152
  H     -2.327503   -0.909428   -2.418162
  H      5.640441    0.401523    0.271703
  H     -4.742993   -0.372644   -2.172928
  H      5.353971   -1.861213    0.386239
  H      4.111119    3.570138   -0.030384
  H     -3.453091    1.468730    2.612535
  H     -6.354555    0.504036   -0.795155

----------------------------
CARTESIAN COORDINATES (A.U.)
----------------------------
  NO LB      ZA    FRAG     MASS         X           Y           Z
   0 O     8.0000    0    15.999    0.808780    1.222355   -0.460616
   1 O     8.0000    0    15.999   -1.349039   -5.326600   -0.024173
   2 O     8.0000    0    15.999    8.304382   -3.729100    0.515313
   3 O     8.0000    0    15.999    8.838911    5.262651    0.118933
   4 O     8.0000    0    15.999   -7.873144    2.485494    3.721468
   5 O     8.0000    0    15.999  -11.051586    1.426336   -0.005857
   6 C     6.0000    0    12.011    0.211213   -3.219329    0.577267
   7 C     6.0000    0    12.011   -0.634160   -1.008386   -1.111398
   8 C     6.0000    0    12.011    3.006427   -3.788377    0.088860
   9 C     6.0000    0    12.011    4.546126   -1.385767    0.039447
  10 C     6.0000    0    12.011    3.377487    0.974183   -0.217656
  11 C     6.0000    0    12.011   -3.396014   -0.335580   -0.871488
  12 C     6.0000    0    12.011    7.194767   -1.405532    0.288271
  13 C     6.0000    0    12.011    4.749639    3.240056   -0.197177
  14 C     6.0000    0    12.011   -4.321798    0.789753    1.348644
  15 C     6.0000    0    12.011   -5.078752   -0.860321   -2.832411
  16 C     6.0000    0    12.011    8.616355    0.814994    0.313216
  17 C     6.0000    0    12.011    7.369147    3.138420    0.078875
  18 C     6.0000    0    12.011   -6.873197    1.374991    1.611824
  19 C     6.0000    0    12.011   -7.649626   -0.293455   -2.578101
  20 C     6.0000    0    12.011   -8.568751    0.817533   -0.375159
  21 H     1.0000    0     1.008   -0.058592   -2.647851    2.559531
  22 H     1.0000    0     1.008   -0.216481   -1.511511   -3.082973
  23 H     1.0000    0     1.008    3.142890   -4.806337   -1.718255
  24 H     1.0000    0     1.008    3.724920   -5.077672    1.545149
  25 H     1.0000    0     1.008    3.764392    5.029211   -0.400997
  26 H     1.0000    0     1.008   -3.041233    1.242073    2.892297
  27 H     1.0000    0     1.008   -0.830542   -6.718278    1.056644
  28 H     1.0000    0     1.008   -4.398344   -1.718571   -4.569665
  29 H     1.0000    0     1.008   10.658889    0.758769    0.513445
  30 H     1.0000    0     1.008   -8.962958   -0.704195   -4.106239
  31 H     1.0000    0     1.008   10.117539   -3.517183    0.729886
  32 H     1.0000    0     1.008    7.768888    6.746583   -0.057418
  33 H     1.0000    0     1.008   -6.525396    2.775497    4.936975
  34 H     1.0000    0     1.008  -12.008369    0.952490   -1.502626

--------------------------------
INTERNAL COORDINATES (ANGSTROEM)
--------------------------------
 O      0   0   0     0.000000000000     0.00000000     0.00000000
 O      1   0   0     3.656131616092     0.00000000     0.00000000
 O      1   2   0     4.781765231207    74.50533882     0.00000000
 O      1   2   3     4.766793006485   134.38670603   356.68471034
 O      1   2   3     5.143132982588    79.45671441   210.70041505
 O      5   1   2     2.652083731945   102.65245711   288.93898049
 C      2   1   3     1.423546908452    24.55994124    37.20989986
 C      1   2   3     1.447452256212    22.66730530   135.06884563
 C      7   2   1     1.531469952545   111.61879866   237.22739014
 C      9   7   2     1.510302913296   111.00495726   164.51913951
 C      1   2   3     1.371669237941   102.28808025   359.12702229
 C      8   1   2     1.509599121411   107.35982669   121.31935534
 C      3   1   2     1.367875203466    30.89373053   182.59667516
 C     11   1   2     1.401810143829   115.60354474   182.80951346
 C     12   8   1     1.405305461488   120.51420116   308.51937384
 C     12   8   1     1.395280524638   120.55648407   129.62942619
 C     13   3   1     1.395290061743   121.65082958   179.90166795
 C      4   1   2     1.367098138948    28.72225776     3.83015301
 C      5   1   2     1.368075096383    41.19588907   305.11845116
 C     16  12   8     1.399611802957   120.40962145   178.34864708
 C      6   5   1     1.366824249675    63.03293198    11.71940420
 H      7   2   1     1.100987743646   110.66850700   114.51368567
 H      8   1   2     1.099198920783   108.49883470   239.41666608
 H      9   7   2     1.099941607697   107.84393302    42.46353602
 H      9   7   2     1.097234711726   109.78040140   286.86274869
 H     14  11   1     1.086210242019   119.74668223   358.93061653
 H     15  12   8     1.088009574774   120.24925403     1.99691566
 H      2   1   3     0.971983549291   131.85029509    41.85677201
 H     16  12   8     1.086760410139   120.05578897   358.49687207
 H     17  13   3     1.086450853781   120.94648230     0.05606328
 H     20  16  12     1.088196652372   120.43270554   180.06366109
 H      3   1   2     0.972663113134   140.14749682   185.09643673
 H      4   1   2     0.972607420989    80.61740825   183.74500509
 H      5   1   2     0.972590234902    69.51503032   107.22861103
 H      6   5   1     0.972920913021   171.87893973     9.91853573

---------------------------
INTERNAL COORDINATES (A.U.)
---------------------------
 O      0   0   0     0.000000000000     0.00000000     0.00000000
 O      1   0   0     6.909087463984     0.00000000     0.00000000
 O      1   2   0     9.036226723688    74.50533882     0.00000000
 O      1   2   3     9.007933319349   134.38670603   356.68471034
 O      1   2   3     9.719112807429    79.45671441   210.70041505
 O      5   1   2     5.011711937604   102.65245711   288.93898049
 C      2   1   3     2.690113795764    24.55994124    37.20989986
 C      1   2   3     2.735288356167    22.66730530   135.06884563
 C      7   2   1     2.894058792639   111.61879866   237.22739014
 C      9   7   2     2.854058885394   111.00495726   164.51913951
 C      1   2   3     2.592079206034   102.28808025   359.12702229
 C      8   1   2     2.852728911475   107.35982669   121.31935534
 C      3   1   2     2.584909519932    30.89373053   182.59667516
 C     11   1   2     2.649037263590   115.60354474   182.80951346
 C     12   8   1     2.655642456717   120.51420116   308.51937384
 C     12   8   1     2.636698071560   120.55648407   129.62942619
 C     13   3   1     2.636716094077   121.65082958   179.90166795
 C      4   1   2     2.583441080806    28.72225776     3.83015301
 C      5   1   2     2.585287262801    41.19588907   305.11845116
 C     16  12   8     2.644883001392   120.40962145   178.34864708
 C      6   5   1     2.582923505088    63.03293198    11.71940420
 H      7   2   1     2.080565312295   110.66850700   114.51368567
 H      8   1   2     2.077184926982   108.49883470   239.41666608
 H      9   7   2     2.078588401853   107.84393302    42.46353602
 H      9   7   2     2.073473109795   109.78040140   286.86274869
 H     14  11   1     2.052639881276   119.74668223   358.93061653
 H     15  12   8     2.056040127408   120.24925403     1.99691566
 H      2   1   3     1.836782714837   131.85029509    41.85677201
 H     16  12   8     2.053679548350   120.05578897   358.49687207
 H     17  13   3     2.053094571611   120.94648230     0.05606328
 H     20  16  12     2.056393652833   120.43270554   180.06366109
 H      3   1   2     1.838066904390   140.14749682   185.09643673
 H      4   1   2     1.837961661488    80.61740825   183.74500509
 H      5   1   2     1.837929184490    69.51503032   107.22861103
 H      6   5   1     1.838554075575   171.87893973     9.91853573

------------------------------------------------------------------------------
                   ___                                                        
                  /   \      - P O W E R E D   B Y -                         
                 /     \                                                     
                 |  |  |   _    _      __       _____    __    __             
                 |  |  |  | |  | |    /  \     |  _  \  |  |  /  |          
                  \  \/   | |  | |   /    \    | | | |  |  | /  /          
                 / \  \   | |__| |  /  /\  \   | |_| |  |  |/  /          
                |  |  |   |  __  | /  /__\  \  |    /   |      \           
                |  |  |   | |  | | |   __   |  |    \   |  |\   \          
                \     /   | |  | | |  |  |  |  | |\  \  |  | \   \       
                 \___/    |_|  |_| |__|  |__|  |_| \__\ |__|  \__/        
                                                                              
                      - O R C A' S   B I G   F R I E N D -                    
                                      &                                       
                       - I N T E G R A L  F E E D E R -                       
                                                                              
 v1 FN, 2020, v2 2021, v3 2022-2024                                           
------------------------------------------------------------------------------


----------------------
SHARK INTEGRAL PACKAGE
----------------------

Number of atoms                             ...     35
Number of basis functions                   ...    322
Number of shells                            ...    154
Maximum angular momentum                    ...      2
Integral batch strategy                     ... SHARK/LIBINT Hybrid
RI-J (if used) integral strategy            ... SPLIT-RIJ (Revised 2003 algorithm where possible)
Printlevel                                  ...      1
Contraction scheme used                     ... SEGMENTED contraction
Prescreening option                         ... SCHWARTZ
   Thresh                                   ... 2.500e-11
   Tcut                                     ... 2.500e-12
   Tpresel                                  ... 2.500e-12 
Coulomb Range Separation                    ... NOT USED
Exchange Range Separation                   ... NOT USED
Multipole approximations                    ... NOT USED
Finite Nucleus Model                        ... NOT USED
CABS basis                                  ... NOT available
Auxiliary Coulomb fitting basis             ... AVAILABLE
   # of basis functions in Aux-J            ...   1183
   # of shells in Aux-J                     ...    385
   Maximum angular momentum in Aux-J        ...      4
Auxiliary J/K fitting basis                 ... NOT available
Auxiliary Correlation fitting basis         ... NOT available
Auxiliary 'external' fitting basis          ... NOT available

Checking pre-screening integrals            ... done (  0.0 sec) Dimension = 154
   => SHARK Basis and OBASIS are compatible. Storing Pre-screening
Shell pair information
Shell pair cut-off parameter TPreSel        ...   2.5e-12
Total number of shell pairs                 ...     11935
Shell pairs after pre-screening             ...      8444
Total number of primitive shell pairs       ...     69489
Primitive shell pairs kept                  ...     27526
          la=0 lb=0:   2814 shell pairs
          la=1 lb=0:   2888 shell pairs
          la=1 lb=1:    743 shell pairs
          la=2 lb=0:   1207 shell pairs
          la=2 lb=1:    650 shell pairs
          la=2 lb=2:    142 shell pairs

Checking whether 4 symmetric matrices of dimension 322 fit in memory
:Max Core in MB      =   4096.00
 MB in use           =     15.93
 MB left             =   4080.07
 MB needed           =      1.59
 Data fit in memory  = YES
Calculating RI/J V-Matrix + Cholesky decomp.... done (  0.4 sec)
Calculating Nuclear repulsion               ... done (  0.0 sec) ENN=   1636.612870025257 Eh

Diagonalization of the overlap matrix:
Smallest eigenvalue                        ... 4.027e-04
Time for diagonalization                   ...    0.009 sec
Threshold for overlap eigenvalues          ... 1.000e-07
Number of eigenvalues below threshold      ... 0
Time for construction of square roots      ...    0.018 sec
Total time needed                          ...    0.046 sec

-------------------
DFT GRID GENERATION
-------------------

General Integration Accuracy     IntAcc      ... 4.388
Radial Grid Type                 RadialGrid  ... OptM3 with GC (2021)
Angular Grid (max. ang.)         AngularGrid ... 4 (Lebedev-302)
Angular grid pruning method      GridPruning ... 4 (adaptive)
Weight generation scheme         WeightScheme... mBecke (2022)
Basis function cutoff            BFCut       ... 1.0000e-11
Integration weight cutoff        WCut        ... 1.0000e-14
Partially contracted basis set               ... off
Rotationally invariant grid construction     ... off
Angular grids for H and He will be reduced by one unit

Total number of grid points                  ...   170380
Total number of batches                      ...     2676
Average number of points per batch           ...       63
Average number of grid points per atom       ...     4868

--------------------
COSX GRID GENERATION
--------------------

GRIDX 1
-------
General Integration Accuracy     IntAcc      ... 3.816
Radial Grid Type                 RadialGrid  ... OptM3 with GC (2021)
Angular Grid (max. ang.)         AngularGrid ... 1 (Lebedev-50)
Angular grid pruning method      GridPruning ... 4 (adaptive)
Weight generation scheme         WeightScheme... mBecke (2022)
Basis function cutoff            BFCut       ... 1.0000e-11
Integration weight cutoff        WCut        ... 1.0000e-14
Partially contracted basis set               ... on
Rotationally invariant grid construction     ... off
Angular grids for H and He will be reduced by one unit

Total number of grid points                  ...    21679
Total number of batches                      ...      189
Average number of points per batch           ...      114
Average number of grid points per atom       ...      619
UseSFitting                                  ... on

GRIDX 2
-------
General Integration Accuracy     IntAcc      ... 4.020
Radial Grid Type                 RadialGrid  ... OptM3 with GC (2021)
Angular Grid (max. ang.)         AngularGrid ... 2 (Lebedev-110)
Angular grid pruning method      GridPruning ... 4 (adaptive)
Weight generation scheme         WeightScheme... mBecke (2022)
Basis function cutoff            BFCut       ... 1.0000e-11
Integration weight cutoff        WCut        ... 1.0000e-14
Partially contracted basis set               ... on
Rotationally invariant grid construction     ... off
Angular grids for H and He will be reduced by one unit

Total number of grid points                  ...    47472
Total number of batches                      ...      389
Average number of points per batch           ...      122
Average number of grid points per atom       ...     1356
UseSFitting                                  ... on

GRIDX 3
-------
General Integration Accuracy     IntAcc      ... 4.338
Radial Grid Type                 RadialGrid  ... OptM3 with GC (2021)
Angular Grid (max. ang.)         AngularGrid ... 3 (Lebedev-194)
Angular grid pruning method      GridPruning ... 4 (adaptive)
Weight generation scheme         WeightScheme... mBecke (2022)
Basis function cutoff            BFCut       ... 1.0000e-11
Integration weight cutoff        WCut        ... 1.0000e-14
Partially contracted basis set               ... on
Rotationally invariant grid construction     ... off
Angular grids for H and He will be reduced by one unit

Total number of grid points                  ...   104091
Total number of batches                      ...      832
Average number of points per batch           ...      125
Average number of grid points per atom       ...     2974
UseSFitting                                  ... on
Grids setup in   6.1 sec
Initializing property integral containers    ... done (  0.0 sec)

SHARK setup successfully completed in   7.2 seconds

Maximum memory used throughout the entire STARTUP-calculation: 72.9 MB
Occupation numbers will be reassigned to an Aufbau configuration
             **** ENERGY FILE WAS UPDATED (Inputs/Catechin_CPCM.en.tmp) ****
Finished Guess after   0.6 sec
Maximum memory used throughout the entire GUESS-calculation: 26.1 MB
--------------------
CPCM SOLVATION MODEL
--------------------
CPCM parameters:
  Epsilon                                         ...      80.1510
  Refrac                                          ...       1.3328
  Rsolv                                           ...       1.3000
  Surface type                                    ... GAUSSIAN VDW
  Discretization scheme                           ... Constant charge density
    Threshold for H atoms                         ...       5.0000 (charges/Ang^2)
    Threshold for non-H atoms                     ...       5.0000 (charges/Ang^2)
  Epsilon function type                           ...         CPCM
Solvent:                                          ... WATER
Radii:
  Scheme                                          ... Element-dependent radii
  Radius for O  used is    3.4469 Bohr (=   1.8240 Ang.)
  Radius for C  used is    3.8550 Bohr (=   2.0400 Ang.)
  Radius for H  used is    2.4944 Bohr (=   1.3200 Ang.)
Calculating surface                               ...        done! (  0.0s)
Cavity surface points                             ...         3009
Cavity Volume                                     ...    2162.0654
Cavity Surface-area                               ...    1120.9250
Calculating surface distance matrix               ...        done! (  0.1s)
Performing Cholesky decomposition & store         ...        done! (  0.8s)
Overall time for CPCM initialization              ...                 0.9s

----------------------------------------D-I-I-S--------------------------------------------
Iteration    Energy (Eh)           Delta-E    RMSDP     MaxDP     DIISErr   Damp  Time(sec)
-------------------------------------------------------------------------------------------
               ***  Starting incremental Fock matrix formation  ***
    1    -1030.7781308943888234     0.00e+00  4.82e-05  1.69e-03  7.49e-03  0.700  21.5
    2    -1030.7783318902572773    -2.01e-04  4.62e-05  1.50e-03  5.98e-03  0.700  10.2
                               ***Turning on AO-DIIS***
    3    -1030.7784933288810407    -1.61e-04  3.96e-05  1.22e-03  4.54e-03  0.700  10.2
    4    -1030.7786136855045243    -1.20e-04  1.03e-04  2.99e-03  3.31e-03  0.000  10.2
                              *** Initializing SOSCF ***
---------------------------------------S-O-S-C-F--------------------------------------
Iteration    Energy (Eh)           Delta-E    RMSDP     MaxDP     MaxGrad    Time(sec)
--------------------------------------------------------------------------------------
    5    -1030.7789178985319722    -3.04e-04  6.91e-06  2.24e-04  1.82e-04    11.6
               *** Restarting incremental Fock matrix formation ***
    6    -1030.7789173187068172     5.80e-07  4.56e-06  1.68e-04  3.83e-05    21.0
    7    -1030.7789174645488401    -1.46e-07  1.51e-06  4.75e-05  6.37e-06    13.5
    8    -1030.7789174694623853    -4.91e-09  7.55e-07  3.32e-05  1.26e-05    11.2
                 **** Energy Check signals convergence ****

               *****************************************************
               *                     SUCCESS                       *
               *           SCF CONVERGED AFTER   8 CYCLES          *
               *****************************************************

Recomputing exchange energy using gridx3       ... done (   28.820 sec)
Old exchange energy                            :    -26.466091254 Eh
New exchange energy                            :    -26.466117512 Eh
Exchange energy change after final integration :     -0.000026257 Eh
Total energy after final integration           :  -1030.778943733 Eh
             **** ENERGY FILE WAS UPDATED (Inputs/Catechin_CPCM.en.tmp) ****

----------------
TOTAL SCF ENERGY
----------------

Total Energy       :      -1030.77894373278286 Eh          -28048.92104 eV

Components:
Nuclear Repulsion  :       1636.61287002525728 Eh           44534.50028 eV
Electronic Energy  :      -2667.34891504256711 Eh          -72582.25399 eV
One Electron Energy:      -4661.30078825441251 Eh         -126840.44289 eV
Two Electron Energy:       1993.95187321184540 Eh           54258.18890 eV
CPCM Dielectric    :         -0.04287245816818 Eh              -1.16662 eV

Virial components:
Potential Energy   :      -2055.59657292783049 Eh          -55935.62646 eV
Kinetic Energy     :       1024.81762919504740 Eh           27886.70542 eV
Virial Ratio       :          2.00581695159013

DFT components:
N(Alpha)           :       76.000007722515 electrons
N(Beta)            :       76.000007722515 electrons
N(Total)           :      152.000015445030 electrons
E(X)               :     -105.198231050613 Eh       
E(C)               :       -6.208495546848 Eh       
E(XC)              :     -111.406726597461 Eh       

CPCM Solvation Model Properties:
Surface-charge          :         -0.01555380035561
Corrected charge        :         -0.00000000000000
Outlying charge corr.   :          0.00001311083171 Eh               0.00036 eV
Free-energy (cav+disp)  :  This term is not implemented in the current solvation scheme

---------------
SCF CONVERGENCE
---------------

  Last Energy change         ...    4.9135e-09  Tolerance :   1.0000e-08
  Last MAX-Density change    ...    3.3197e-05  Tolerance :   1.0000e-07
  Last RMS-Density change    ...    7.5543e-07  Tolerance :   5.0000e-09
  Last DIIS Error            ...    1.8244e-04  Tolerance :   5.0000e-07
  Last Orbital Gradient      ...    1.2596e-05  Tolerance :   1.0000e-05
  Last Orbital Rotation      ...    2.2515e-05  Tolerance :   1.0000e-05


Total SCF time: 0 days 0 hours 2 min 32 sec 
Finished LeanSCF after 153.6 sec

Maximum memory used throughout the entire LEANSCF-calculation: 92.2 MB

------------------------------------------------------------------------------
                         ORCA PROPERTY INTEGRAL CALCULATIONS
------------------------------------------------------------------------------

GBWName                                   ... Inputs/Catechin_CPCM.gbw
Number of atoms                           ...     35
Number of basis functions                 ...    322
Max core memory                           ...   4096 MB

Dipole integrals                          ... YES
Quadrupole integrals                      ...  NO
Linear momentum integrals                 ...  NO
Angular momentum integrals                ...  NO
Higher moments length integrals           ...  NO
Higher moments velocity integrals         ...  NO
Kinetic energy integrals                  ...  NO
GIAO right hand sides                     ...  NO
GIAO dipole derivative integrals          ...  NO
SOC integrals                             ...  NO
EPR diamagnetic integrals (GIAO)          ...  NO
EPR gauge integrals                       ...  NO
Field gradient integrals                  ...  NO (   0 nuclei)
Spin-dipole/Fermi contact integrals       ...  NO (   0 nuclei)
Contact density integrals                 ...  NO (   0 nuclei)
Nucleus-orbit integrals                   ...  NO (   0 nuclei)
Geometric perturbations                   ...  NO (  35 nuclei)

Choice of electric origin   ... Center of mass
Position of electric origin ... ( -0.0116, -0.0055,  0.0501) 
Choice of magnetic origin   ... GIAO
Position of magnetic origin ... (  0.0000,  0.0000,  0.0000) 

Calculating integrals                     ... Electric Dipole (Length)     done (  0.1 sec)

Property integrals calculated in   0.1 sec

Maximum memory used throughout the entire PROPINT-calculation: 25.8 MB

-------------------------   --------------------
FINAL SINGLE POINT ENERGY     -1030.778943732783
-------------------------   --------------------

------------------------------------------------------------------------------
                         ORCA SCF GRADIENT CALCULATION
------------------------------------------------------------------------------

Nuc. rep. gradient        (SHARK) ... done (  0.0 sec)
HCore & Overlap gradient  (SHARK) ... done (  1.0 sec)
Split-RIJ-J gradient      (SHARK) ... done (  4.9 sec)
COSX-gradient                     ... done ( 66.3 sec)
XC gradient                       ... done ( 14.3 sec)
CPCM gradient                     ... done (  4.8 sec)

------------------
CARTESIAN GRADIENT
------------------

   1   O   :    0.000319727    0.000360788    0.000046035
   2   O   :    0.000479582   -0.000253511   -0.000175425
   3   O   :    0.000024870    0.000035006   -0.000015578
   4   O   :   -0.000066058   -0.000215852    0.000034487
   5   O   :   -0.000065219    0.000003306   -0.000321396
   6   O   :    0.000364963   -0.000056353    0.000111114
   7   C   :    0.000024012   -0.000007338    0.000146918
   8   C   :   -0.000575378   -0.000100465    0.000045893
   9   C   :    0.000073777    0.000199514   -0.000127315
  10   C   :   -0.000568749   -0.000489626   -0.000010947
  11   C   :    0.000104254    0.000051412    0.000006168
  12   C   :    0.000270691   -0.000004719   -0.000396693
  13   C   :    0.000339523    0.000520567    0.000022037
  14   C   :   -0.000102884    0.000101907    0.000013680
  15   C   :   -0.000239564   -0.000015883   -0.000048503
  16   C   :    0.000028586    0.000035329    0.000044993
  17   C   :    0.000037664   -0.000101190    0.000007651
  18   C   :   -0.000274157    0.000015015   -0.000048166
  19   C   :    0.000988766    0.000247772    0.001016171
  20   C   :    0.000130478    0.000169014    0.000346831
  21   C   :   -0.000847921   -0.000355458   -0.001068078
  22   H   :    0.000115331    0.000021300   -0.000024321
  23   H   :    0.000117079   -0.000105234    0.000029777
  24   H   :   -0.000128555   -0.000034970    0.000021549
  25   H   :    0.000058952    0.000055207   -0.000024965
  26   H   :    0.000058818   -0.000015296   -0.000001341
  27   H   :   -0.000174966    0.000072103    0.000141546
  28   H   :   -0.000294718   -0.000003967    0.000112922
  29   H   :    0.000013704   -0.000003849    0.000004500
  30   H   :   -0.000037125   -0.000083602   -0.000013022
  31   H   :   -0.000189269    0.000087092    0.000128830
  32   H   :    0.000007333   -0.000091489   -0.000006690
  33   H   :    0.000038990    0.000024630   -0.000023149
  34   H   :   -0.000027016   -0.000060134    0.000030756
  35   H   :   -0.000005520   -0.000001028   -0.000006272

Difference to translation invariance:
           :   -0.0000000001    0.0000000000    0.0000000001

Difference to rotation invariance:
           :    0.0002053650    0.0013649277   -0.0001780788

Norm of the Cartesian gradient     ...    0.0026831704
RMS gradient                       ...    0.0002618506
MAX gradient                       ...    0.0010680781

-------
TIMINGS
-------

Total SCF gradient time     ....       91.328 sec

Densities                   ....       0.002 sec  (  0.0%)
One electron gradient       ....       0.987 sec  (  1.1%)
RI-J Coulomb gradient       ....       4.915 sec  (  5.4%)
COSX gradient               ....      66.252 sec  ( 72.5%)
XC gradient                 ....      14.295 sec  ( 15.7%)
CPCM gradient               ....       4.840 sec  (  5.3%)
   A-Matrix (El+Nuc)        ....       0.169 sec  (  0.2%)
   Potential                ....       4.671 sec  (  5.1%)

Maximum memory used throughout the entire SCFGRAD-calculation: 56.8 MB
------------------------------------------------------------------------------
                         ORCA GEOMETRY RELAXATION STEP
------------------------------------------------------------------------------

Reading the OPT-File                    .... done
Getting information on internals        .... done
Copying old internal coords+grads       .... done
Making the new internal coordinates     .... (2022 redundants) done
Validating the new internal coordinates .... (2022 redundants) done
Calculating the B-matrix                .... done
Calculating the G,G- and P matrices     .... done
Transforming gradient to internals      .... done
Projecting the internal gradient        .... done
Number of atoms                         ....  35
Number of internal coordinates          .... 183
Current Energy                          .... -1030.778943733 Eh
Current gradient norm                   ....     0.002683170 Eh/bohr
Maximum allowed component of the step   ....  0.300
Current trust radius                    ....  0.675
Updating the Hessian (BFGS)             .... done
Forming the augmented Hessian           .... done
Diagonalizing the augmented Hessian     .... done
Last element of RFO vector              ....  0.997522027
Lowest eigenvalues of augmented Hessian:
 -0.000026568  0.003246973  0.013166664  0.015228688  0.019438865
Length of the computed step             ....  0.070529630
The final length of the internal step   ....  0.070529630
Converting the step to Cartesian space:
 Initial RMS(Int)=    0.0052137003
Transforming coordinates:
 Iter   0:  RMS(Cart)=    0.0186150620 RMS(Int)=    0.6550363765
done
Storing new coordinates                 .... done
The predicted energy change is          ....    -0.000013350
Previously predicted energy change      ....    -0.000016843
Actually observed energy change         ....    -0.000023283
Ratio of predicted to observed change   ....     1.382339875
New trust radius                        ....     0.675000000

                                .--------------------.
          ----------------------|Geometry convergence|-------------------------
          Item                value                   Tolerance       Converged
          ---------------------------------------------------------------------
          Energy change      -0.0000232825            0.0000050000      NO
          RMS gradient        0.0001295309            0.0001000000      NO
          MAX gradient        0.0007101402            0.0003000000      NO
          RMS step            0.0052137003            0.0020000000      NO
          MAX step            0.0322960292            0.0040000000      NO
          -------------------------------------------------------------------------
          ........................................................
          Max(Bonds)      0.0008      Max(Angles)    0.14
          Max(Dihed)        1.85      Max(Improp)    0.00
          ---------------------------------------------------------------------

The optimization has not yet converged - more geometry cycles are needed


    ---------------------------------------------------------------------------
                         Redundant Internal Coordinates
                            (Angstroem and degrees)

        Definition                    Value    dE/dq     Step     New-Value
    ----------------------------------------------------------------------------
     1. B(C   6,O   1)                1.4235  0.000108 -0.0007    1.4229   
     2. B(C   7,O   0)                1.4475  0.000301 -0.0008    1.4466   
     3. B(C   7,C   6)                1.5387  0.000209  0.0002    1.5389   
     4. B(C   8,C   6)                1.5315 -0.000185  0.0002    1.5317   
     5. B(C   9,C   8)                1.5103 -0.000273  0.0000    1.5103   
     6. B(C  10,C   9)                1.4002  0.000039 -0.0001    1.4001   
     7. B(C  10,O   0)                1.3717 -0.000237  0.0004    1.3720   
     8. B(C  11,C   7)                1.5096 -0.000223  0.0005    1.5101   
     9. B(C  12,C   9)                1.4078  0.000213 -0.0002    1.4076   
    10. B(C  12,O   2)                1.3679  0.000062 -0.0001    1.3678   
    11. B(C  13,C  10)                1.4018 -0.000075  0.0001    1.4019   
    12. B(C  14,C  11)                1.4053  0.000263 -0.0000    1.4053   
    13. B(C  15,C  11)                1.3953 -0.000005 -0.0000    1.3953   
    14. B(C  16,C  12)                1.3953 -0.000335  0.0002    1.3955   
    15. B(C  17,O   3)                1.3671 -0.000172  0.0001    1.3672   
    16. B(C  17,C  16)                1.4009 -0.000025 -0.0001    1.4009   
    17. B(C  17,C  13)                1.3949 -0.000144  0.0000    1.3949   
    18. B(C  18,C  14)                1.3922 -0.000388  0.0003    1.3925   
    19. B(C  18,O   4)                1.3681 -0.000234  0.0001    1.3681   
    20. B(C  19,C  15)                1.3996  0.000075  0.0000    1.3996   
    21. B(C  20,C  19)                1.3933 -0.000497  0.0004    1.3936   
    22. B(C  20,C  18)                1.4134  0.000710 -0.0007    1.4127   
    23. B(C  20,O   5)                1.3668 -0.000349  0.0002    1.3671   
    24. B(H  21,C   6)                1.1010 -0.000031  0.0002    1.1012   
    25. B(H  22,C   7)                1.0992  0.000021 -0.0000    1.0992   
    26. B(H  23,C   8)                1.0999 -0.000014  0.0000    1.1000   
    27. B(H  24,C   8)                1.0972 -0.000029  0.0001    1.0973   
    28. B(H  25,C  13)                1.0862 -0.000041  0.0001    1.0863   
    29. B(H  26,C  14)                1.0880  0.000009 -0.0001    1.0879   
    30. B(H  27,O   1)                0.9720 -0.000013  0.0001    0.9720   
    31. B(H  28,C  15)                1.0868  0.000007 -0.0000    1.0867   
    32. B(H  29,C  16)                1.0865 -0.000036  0.0000    1.0865   
    33. B(H  30,C  19)                1.0882  0.000012 -0.0000    1.0882   
    34. B(H  31,O   2)                0.9727 -0.000003 -0.0000    0.9726   
    35. B(H  32,O   3)                0.9726 -0.000000 -0.0000    0.9726   
    36. B(H  33,O   4)                0.9726 -0.000017 -0.0001    0.9725   
    37. B(H  34,O   5)                0.9729  0.000017 -0.0001    0.9728   
    38. A(C   7,O   0,C  10)          117.84 -0.000127   -0.06    117.78   
    39. A(C   6,O   1,H  27)          107.35  0.000293   -0.02    107.33   
    40. A(C  12,O   2,H  31)          109.27  0.000167   -0.02    109.25   
    41. A(C  17,O   3,H  32)          109.34  0.000083   -0.01    109.33   
    42. A(C  18,O   4,H  33)          108.89  0.000023    0.02    108.91   
    43. A(C  20,O   5,H  34)          108.85 -0.000009    0.03    108.88   
    44. A(O   1,C   6,C   8)          111.62 -0.000154    0.06    111.68   
    45. A(C   8,C   6,H  21)          109.88  0.000023    0.02    109.90   
    46. A(C   7,C   6,C   8)          109.41 -0.000048   -0.06    109.35   
    47. A(O   1,C   6,C   7)          107.29  0.000142    0.09    107.38   
    48. A(C   7,C   6,H  21)          107.86 -0.000043   -0.06    107.80   
    49. A(O   1,C   6,H  21)          110.67  0.000083   -0.05    110.62   
    50. A(C   6,C   7,C  11)          114.33  0.000244   -0.14    114.19   
    51. A(C  11,C   7,H  22)          109.37  0.000078   -0.02    109.35   
    52. A(C   6,C   7,H  22)          107.97 -0.000153    0.06    108.03   
    53. A(O   0,C   7,C  11)          107.36 -0.000184    0.09    107.45   
    54. A(O   0,C   7,H  22)          108.50 -0.000007    0.02    108.51   
    55. A(O   0,C   7,C   6)          109.18  0.000016   -0.01    109.18   
    56. A(C   6,C   8,C   9)          111.00 -0.000040   -0.02    110.98   
    57. A(C   9,C   8,H  24)          110.41 -0.000101   -0.01    110.39   
    58. A(C   6,C   8,H  24)          109.78  0.000075    0.00    109.79   
    59. A(C   9,C   8,H  23)          111.21  0.000120   -0.00    111.21   
    60. A(C   6,C   8,H  23)          107.84 -0.000072    0.02    107.87   
    61. A(H  23,C   8,H  24)          106.46  0.000022    0.01    106.47   
    62. A(C   8,C   9,C  10)          120.95  0.000187   -0.03    120.92   
    63. A(C  10,C   9,C  12)          117.09 -0.000200    0.04    117.13   
    64. A(C   8,C   9,C  12)          121.95  0.000012   -0.01    121.94   
    65. A(C   9,C  10,C  13)          122.23  0.000126   -0.03    122.20   
    66. A(O   0,C  10,C  13)          115.60 -0.000117    0.00    115.61   
    67. A(O   0,C  10,C   9)          122.15 -0.000009    0.03    122.19   
    68. A(C  14,C  11,C  15)          118.92 -0.000014    0.01    118.93   
    69. A(C   7,C  11,C  15)          120.56  0.000116   -0.05    120.51   
    70. A(C   7,C  11,C  14)          120.51 -0.000103    0.03    120.55   
    71. A(O   2,C  12,C   9)          116.25 -0.000131    0.04    116.29   
    72. A(C   9,C  12,C  16)          122.10  0.000108   -0.02    122.08   
    73. A(O   2,C  12,C  16)          121.65  0.000024   -0.02    121.63   
    74. A(C  17,C  13,H  25)          121.40  0.000013   -0.00    121.40   
    75. A(C  10,C  13,H  25)          119.75  0.000103   -0.02    119.72   
    76. A(C  10,C  13,C  17)          118.85 -0.000116    0.02    118.88   
    77. A(C  11,C  14,C  18)          121.06  0.000021   -0.03    121.03   
    78. A(C  11,C  14,H  26)          120.25  0.000232   -0.04    120.21   
    79. A(C  18,C  14,H  26)          118.68 -0.000253    0.07    118.76   
    80. A(C  11,C  15,C  19)          120.41 -0.000015    0.01    120.42   
    81. A(C  19,C  15,H  28)          119.53  0.000025   -0.01    119.53   
    82. A(C  11,C  15,H  28)          120.06 -0.000010   -0.00    120.05   
    83. A(C  17,C  16,H  29)          120.09  0.000110    0.00    120.09   
    84. A(C  12,C  16,H  29)          120.95 -0.000061   -0.01    120.94   
    85. A(C  12,C  16,C  17)          118.96 -0.000050    0.01    118.97   
    86. A(C  13,C  17,C  16)          120.75  0.000131   -0.02    120.73   
    87. A(O   3,C  17,C  16)          116.89 -0.000219    0.03    116.92   
    88. A(O   3,C  17,C  13)          122.36  0.000088   -0.02    122.35   
    89. A(C  14,C  18,C  20)          119.66 -0.000074    0.03    119.68   
    90. A(O   4,C  18,C  20)          116.82 -0.000260    0.05    116.87   
    91. A(O   4,C  18,C  14)          123.52  0.000333   -0.08    123.44   
    92. A(C  20,C  19,H  30)          118.89 -0.000286    0.02    118.91   
    93. A(C  15,C  19,H  30)          120.43  0.000201    0.00    120.44   
    94. A(C  15,C  19,C  20)          120.68  0.000086   -0.03    120.65   
    95. A(O   5,C  20,C  18)          117.04 -0.000167    0.05    117.09   
    96. A(C  18,C  20,C  19)          119.27 -0.000005    0.01    119.28   
    97. A(O   5,C  20,C  19)          123.69  0.000172   -0.06    123.63   
    98. D(C   8,C   6,O   1,H  27)     60.85  0.000173   -1.82     59.04   
    99. D(H  21,C   6,O   1,H  27)    -61.86  0.000192   -1.85    -63.71   
   100. D(C   7,C   6,O   1,H  27)   -179.30  0.000114   -1.80   -181.10   
   101. D(O   0,C   7,C   6,O   1)    176.75  0.000097   -0.24    176.51   
   102. D(C  11,C   7,O   0,C  10)    171.53  0.000141   -0.03    171.50   
   103. D(H  22,C   7,O   0,C  10)    -70.37  0.000128    0.01    -70.36   
   104. D(C  11,C   7,C   6,O   1)     56.49  0.000160   -0.26     56.23   
   105. D(O   0,C   7,C   6,C   8)    -62.00 -0.000030   -0.15    -62.15   
   106. D(C  11,C   7,C   6,H  21)    -62.77  0.000007   -0.21    -62.98   
   107. D(C  11,C   7,C   6,C   8)    177.73  0.000032   -0.17    177.57   
   108. D(C   6,C   7,O   0,C  10)     47.07 -0.000050    0.09     47.17   
   109. D(O   0,C   7,C   6,H  21)     57.49 -0.000055   -0.19     57.30   
   110. D(C   9,C   8,C   6,H  21)    -72.32  0.000074    0.18    -72.14   
   111. D(C   9,C   8,C   6,O   1)    164.52  0.000057    0.19    164.71   
   112. D(C   9,C   8,C   6,C   7)     45.93  0.000006    0.08     46.01   
   113. D(H  23,C   8,C   6,O   1)     42.46 -0.000020    0.19     42.65   
   114. D(H  23,C   8,C   6,C   7)    -76.13 -0.000071    0.09    -76.04   
   115. D(H  23,C   8,C   6,H  21)    165.63 -0.000003    0.19    165.81   
   116. D(C  12,C   9,C   8,C   6)    163.02 -0.000030   -0.03    162.99   
   117. D(C  10,C   9,C   8,H  23)    104.14 -0.000049   -0.02    104.12   
   118. D(C  10,C   9,C   8,H  24)   -137.92 -0.000010   -0.01   -137.93   
   119. D(C  12,C   9,C   8,H  23)    -76.91 -0.000068   -0.01    -76.92   
   120. D(C  10,C   9,C   8,C   6)    -15.94 -0.000011   -0.03    -15.97   
   121. D(C  13,C  10,C   9,C  12)     -0.87 -0.000002   -0.03     -0.90   
   122. D(C  13,C  10,C   9,C   8)    178.14 -0.000018   -0.03    178.11   
   123. D(O   0,C  10,C   9,C  12)   -179.67 -0.000034   -0.03   -179.70   
   124. D(O   0,C  10,C   9,C   8)     -0.67 -0.000050   -0.02     -0.69   
   125. D(C  13,C  10,O   0,C   7)    165.17  0.000037   -0.00    165.17   
   126. D(C   9,C  10,O   0,C   7)    -15.96  0.000070   -0.01    -15.96   
   127. D(C  14,C  11,C   7,C   6)     69.79 -0.000017    0.94     70.74   
   128. D(C  14,C  11,C   7,O   0)    -51.48 -0.000061    0.97    -50.51   
   129. D(C  15,C  11,C   7,C   6)   -109.10 -0.000019    1.11   -107.98   
   130. D(C  15,C  11,C   7,O   0)    129.63 -0.000063    1.14    130.77   
   131. D(C  14,C  11,C   7,H  22)   -169.01  0.000009    0.91   -168.10   
   132. D(C  16,C  12,C   9,C  10)      0.80  0.000007    0.03      0.82   
   133. D(C  16,C  12,C   9,C   8)   -178.20  0.000022    0.03   -178.17   
   134. D(O   2,C  12,C   9,C  10)   -179.45  0.000005    0.03   -179.43   
   135. D(O   2,C  12,C   9,C   8)      1.55  0.000019    0.03      1.58   
   136. D(C  16,C  12,O   2,H  31)      1.60 -0.000002    0.19      1.79   
   137. D(C   9,C  12,O   2,H  31)   -178.15  0.000000    0.19   -177.97   
   138. D(H  25,C  13,C  10,C   9)   -179.94 -0.000010    0.02   -179.92   
   139. D(C  17,C  13,C  10,O   0)    179.13  0.000027    0.01    179.14   
   140. D(C  17,C  13,C  10,C   9)      0.26 -0.000004    0.01      0.27   
   141. D(H  25,C  13,C  10,O   0)     -1.07  0.000021    0.02     -1.05   
   142. D(H  26,C  14,C  11,C  15)   -179.10 -0.000000   -0.01   -179.10   
   143. D(H  26,C  14,C  11,C   7)      2.00 -0.000004    0.16      2.15   
   144. D(C  18,C  14,C  11,C  15)      0.15 -0.000009   -0.00      0.14   
   145. D(C  18,C  14,C  11,C   7)   -178.76 -0.000012    0.16   -178.60   
   146. D(H  28,C  15,C  11,C  14)    179.59  0.000002    0.01    179.60   
   147. D(H  28,C  15,C  11,C   7)     -1.50  0.000003   -0.16     -1.66   
   148. D(C  19,C  15,C  11,C  14)     -0.56  0.000002    0.02     -0.54   
   149. D(C  19,C  15,C  11,C   7)    178.35  0.000002   -0.14    178.21   
   150. D(H  29,C  16,C  12,C   9)    179.79 -0.000003   -0.02    179.78   
   151. D(H  29,C  16,C  12,O   2)      0.06  0.000000   -0.02      0.04   
   152. D(C  17,C  16,C  12,C   9)     -0.11 -0.000006   -0.00     -0.11   
   153. D(C  17,C  16,C  12,O   2)   -179.85 -0.000004   -0.00   -179.85   
   154. D(C  16,C  17,C  13,H  25)   -179.32  0.000014    0.01   -179.32   
   155. D(C  16,C  17,C  13,C  10)      0.47  0.000008    0.02      0.49   
   156. D(O   3,C  17,C  13,H  25)      0.25  0.000010   -0.01      0.25   
   157. D(O   3,C  17,C  13,C  10)   -179.95  0.000004    0.00   -179.95   
   158. D(C  16,C  17,O   3,H  32)    180.00 -0.000020    0.21    180.21   
   159. D(O   3,C  17,C  16,C  12)    179.86 -0.000000   -0.01    179.85   
   160. D(C  13,C  17,O   3,H  32)      0.41 -0.000017    0.22      0.63   
   161. D(C  13,C  17,C  16,H  29)    179.55 -0.000007   -0.00    179.55   
   162. D(C  13,C  17,C  16,C  12)     -0.54 -0.000003   -0.02     -0.56   
   163. D(O   3,C  17,C  16,H  29)     -0.05 -0.000004    0.01     -0.04   
   164. D(C  20,C  18,C  14,H  26)    179.64  0.000012   -0.03    179.61   
   165. D(C  20,C  18,C  14,C  11)      0.39  0.000017   -0.03      0.36   
   166. D(O   4,C  18,C  14,H  26)     -0.29  0.000015   -0.05     -0.34   
   167. D(O   4,C  18,C  14,C  11)   -179.54  0.000020   -0.06   -179.60   
   168. D(C  20,C  18,O   4,H  33)   -179.81 -0.000057    0.37   -179.44   
   169. D(C  14,C  18,O   4,H  33)      0.13 -0.000060    0.39      0.52   
   170. D(H  30,C  19,C  15,H  28)     -0.08  0.000003   -0.02     -0.11   
   171. D(H  30,C  19,C  15,C  11)   -179.94  0.000004   -0.04   -179.97   
   172. D(C  20,C  19,C  15,H  28)   -179.71 -0.000005    0.01   -179.70   
   173. D(C  20,C  19,C  15,C  11)      0.44 -0.000004   -0.00      0.43   
   174. D(C  18,C  20,C  19,H  30)   -179.53  0.000003   -0.00   -179.53   
   175. D(C  18,C  20,C  19,C  15)      0.10  0.000013   -0.03      0.07   
   176. D(O   5,C  20,C  19,H  30)      0.17  0.000003   -0.02      0.15   
   177. D(O   5,C  20,C  19,C  15)    179.80  0.000013   -0.05    179.75   
   178. D(C  19,C  20,C  18,C  14)     -0.51 -0.000019    0.05     -0.46   
   179. D(C  19,C  20,C  18,O   4)    179.43 -0.000022    0.07    179.50   
   180. D(O   5,C  20,C  18,C  14)    179.77 -0.000020    0.07    179.84   
   181. D(O   5,C  20,C  18,O   4)     -0.29 -0.000023    0.09     -0.20   
   182. D(C  19,C  20,O   5,H  34)      0.18 -0.000004    0.00      0.18   
   183. D(C  18,C  20,O   5,H  34)    179.88 -0.000003   -0.02    179.87   
    ----------------------------------------------------------------------------

Geometry step timings:
Preparation and reading OPT file:      0.004 s ( 3.298 %)
Internal coordinates            :      0.002 s ( 1.478 %)
B/P matrices and projection     :      0.007 s ( 5.886 %)
Hessian update/contruction      :      0.027 s (23.644 %)
Making the step                 :      0.005 s ( 4.713 %)
Converting the step to Cartesian:      0.001 s ( 1.267 %)
Storing new data                :      0.003 s ( 2.710 %)
Checking convergence            :      0.004 s ( 3.555 %)
Final printing                  :      0.062 s (53.446 %)
Total time                      :      0.116 s

Time for energy+gradient        :    254.901 s
Time for complete geometry iter :    255.614 s

         *************************************************************
         *                GEOMETRY OPTIMIZATION CYCLE   7            *
         *************************************************************
---------------------------------
CARTESIAN COORDINATES (ANGSTROEM)
---------------------------------
  O      0.428587    0.650601   -0.239566
  O     -0.718343   -2.813355   -0.017693
  O      4.392799   -1.977199    0.263872
  O      4.680922    2.781933    0.077518
  O     -4.163618    1.336740    1.960642
  O     -5.851503    0.745350    0.000221
  C      0.109926   -1.701034    0.300562
  C     -0.335065   -0.527153   -0.589491
  C      1.588550   -2.003696    0.039524
  C      2.405192   -0.733338    0.018809
  C      1.788027    0.516573   -0.111471
  C     -1.797512   -0.173314   -0.461340
  C      3.806629   -0.746650    0.149948
  C      2.516030    1.714532   -0.094838
  C     -2.285480    0.434447    0.707975
  C     -2.690732   -0.468833   -1.491694
  C      4.560460    0.427584    0.168678
  C      3.902159    1.658515    0.050936
  C     -3.637027    0.738711    0.848497
  C     -4.052156   -0.173981   -1.355625
  C     -4.536539    0.426615   -0.195105
  H     -0.031465   -1.400052    1.350312
  H     -0.113862   -0.789024   -1.633822
  H      1.659505   -2.537996   -0.919325
  H      1.968341   -2.689932    0.806984
  H      1.995695    2.662467   -0.197983
  H     -1.605109    0.687195    1.518369
  H     -0.425177   -3.559378    0.532189
  H     -2.332021   -0.932815   -2.406608
  H      5.641327    0.395797    0.274393
  H     -4.749095   -0.404703   -2.158819
  H      5.351984   -1.865935    0.380607
  H      4.114829    3.568113   -0.008433
  H     -3.447378    1.506737    2.596161
  H     -6.359379    0.482479   -0.786785

----------------------------
CARTESIAN COORDINATES (A.U.)
----------------------------
  NO LB      ZA    FRAG     MASS         X           Y           Z
   0 O     8.0000    0    15.999    0.809912    1.229458   -0.452714
   1 O     8.0000    0    15.999   -1.357472   -5.316471   -0.033436
   2 O     8.0000    0    15.999    8.301187   -3.736364    0.498646
   3 O     8.0000    0    15.999    8.845661    5.257091    0.146487
   4 O     8.0000    0    15.999   -7.868097    2.526072    3.705077
   5 O     8.0000    0    15.999  -11.057738    1.408508    0.000418
   6 C     6.0000    0    12.011    0.207730   -3.214488    0.567980
   7 C     6.0000    0    12.011   -0.633181   -0.996175   -1.113976
   8 C     6.0000    0    12.011    3.001924   -3.786437    0.074690
   9 C     6.0000    0    12.011    4.545155   -1.385809    0.035545
  10 C     6.0000    0    12.011    3.378881    0.976182   -0.210650
  11 C     6.0000    0    12.011   -3.396806   -0.327516   -0.871807
  12 C     6.0000    0    12.011    7.193486   -1.410964    0.283362
  13 C     6.0000    0    12.011    4.754608    3.239995   -0.179217
  14 C     6.0000    0    12.011   -4.318932    0.820986    1.337878
  15 C     6.0000    0    12.011   -5.084747   -0.885966   -2.818894
  16 C     6.0000    0    12.011    8.618020    0.808017    0.318755
  17 C     6.0000    0    12.011    7.374012    3.134138    0.096256
  18 C     6.0000    0    12.011   -6.872985    1.395962    1.603427
  19 C     6.0000    0    12.011   -7.657466   -0.328777   -2.561760
  20 C     6.0000    0    12.011   -8.572815    0.806186   -0.368695
  21 H     1.0000    0     1.008   -0.059461   -2.645715    2.551720
  22 H     1.0000    0     1.008   -0.215168   -1.491039   -3.087476
  23 H     1.0000    0     1.008    3.136009   -4.796117   -1.737272
  24 H     1.0000    0     1.008    3.719625   -5.083235    1.524978
  25 H     1.0000    0     1.008    3.771318    5.031333   -0.374133
  26 H     1.0000    0     1.008   -3.033217    1.298609    2.869302
  27 H     1.0000    0     1.008   -0.803469   -6.726249    1.005691
  28 H     1.0000    0     1.008   -4.406880   -1.762766   -4.547829
  29 H     1.0000    0     1.008   10.660562    0.747947    0.518527
  30 H     1.0000    0     1.008   -8.974489   -0.764778   -4.079577
  31 H     1.0000    0     1.008   10.113783   -3.526106    0.719243
  32 H     1.0000    0     1.008    7.775900    6.742756   -0.015936
  33 H     1.0000    0     1.008   -6.514600    2.847321    4.906033
  34 H     1.0000    0     1.008  -12.017484    0.911753   -1.486809

--------------------------------
INTERNAL COORDINATES (ANGSTROEM)
--------------------------------
 O      0   0   0     0.000000000000     0.00000000     0.00000000
 O      1   0   0     3.655635276637     0.00000000     0.00000000
 O      1   2   0     4.782651736566    74.51594943     0.00000000
 O      1   2   3     4.767123967470   134.38472378   356.52559937
 O      1   2   3     5.138097277893    79.63827341   210.46299053
 O      5   1   2     2.653667222788   102.84842498   289.86516460
 C      2   1   3     1.422875982908    24.52095932    37.00392945
 C      1   2   3     1.446622625392    22.72173100   134.72380610
 C      7   2   1     1.531689835366   111.67558048   236.99911178
 C      9   7   2     1.510345035587   110.98364187   164.70743626
 C      1   2   3     1.372023623058   102.27679945   359.05723093
 C      8   1   2     1.510091506041   107.45382645   120.98505755
 C      3   1   2     1.367780424251    30.87340735   182.74124467
 C     11   1   2     1.401916548281   115.60482706   182.93115565
 C     12   8   1     1.405270239207   120.54653317   309.49425608
 C     12   8   1     1.395278609342   120.50940142   130.77183205
 C     13   3   1     1.395506569428   121.62779544   179.92852960
 C      4   1   2     1.367203954143    28.74661988     4.00114974
 C      5   1   2     1.368138043389    41.36929647   305.66723240
 C     16  12   8     1.399617176074   120.41721474   178.20689716
 C      6   5   1     1.367068273144    62.97995612    11.53990399
 H      7   2   1     1.101161611180   110.61934550   114.25045318
 H      8   1   2     1.099152174718   108.51525485   239.12337104
 H      9   7   2     1.099955693919   107.86754260    42.65511304
 H      9   7   2     1.097339794012   109.78495396   287.02293857
 H     14  11   1     1.086263221897   119.72412004   358.94698969
 H     15  12   8     1.087899567220   120.20884072     2.15306243
 H      2   1   3     0.972042702608   131.83188770    39.61375750
 H     16  12   8     1.086747290573   120.05386920   358.33847192
 H     17  13   3     1.086489048302   120.93578918     0.03995617
 H     20  16  12     1.088152785958   120.43588294   180.02578381
 H      3   1   2     0.972646917810   140.10151786   185.47772630
 H      4   1   2     0.972588283481    80.57985985   184.13281703
 H      5   1   2     0.972513615864    69.20268243   108.59114415
 H      6   5   1     0.972840395599   171.85600099     9.94180906

---------------------------
INTERNAL COORDINATES (A.U.)
---------------------------
 O      0   0   0     0.000000000000     0.00000000     0.00000000
 O      1   0   0     6.908149518345     0.00000000     0.00000000
 O      1   2   0     9.037901976033    74.51594943     0.00000000
 O      1   2   3     9.008558744971   134.38472378   356.52559937
 O      1   2   3     9.709596704664    79.63827341   210.46299053
 O      5   1   2     5.014704301633   102.84842498   289.86516460
 C      2   1   3     2.688845930229    24.52095932    37.00392945
 C      1   2   3     2.733720581126    22.72173100   134.72380610
 C      7   2   1     2.894474310952   111.67558048   236.99911178
 C      9   7   2     2.854138484987   110.98364187   164.70743626
 C      1   2   3     2.592748896851   102.27679945   359.05723093
 C      8   1   2     2.853659383578   107.45382645   120.98505755
 C      3   1   2     2.584730413173    30.87340735   182.74124467
 C     11   1   2     2.649238338863   115.60482706   182.93115565
 C     12   8   1     2.655575896252   120.54653317   309.49425608
 C     12   8   1     2.636694452175   120.50940142   130.77183205
 C     13   3   1     2.637125234308   121.62779544   179.92852960
 C      4   1   2     2.583641042544    28.74661988     4.00114974
 C      5   1   2     2.585406215403    41.36929647   305.66723240
 C     16  12   8     2.644893155112   120.41721474   178.20689716
 C      6   5   1     2.583384642616    62.97995612    11.53990399
 H      7   2   1     2.080893874317   110.61934550   114.25045318
 H      8   1   2     2.077096589721   108.51525485   239.12337104
 H      9   7   2     2.078615020955   107.86754260    42.65511304
 H      9   7   2     2.073671686537   109.78495396   287.02293857
 H     14  11   1     2.052739998736   119.72412004   358.94698969
 H     15  12   8     2.055832243258   120.20884072     2.15306243
 H      2   1   3     1.836894498405   131.83188770    39.61375750
 H     16  12   8     2.053654755963   120.05386920   358.33847192
 H     17  13   3     2.053166748796   120.93578918     0.03995617
 H     20  16  12     2.056310757323   120.43588294   180.02578381
 H      3   1   2     1.838036299664   140.10151786   185.47772630
 H      4   1   2     1.837925496840    80.57985985   184.13281703
 H      5   1   2     1.837784395493    69.20268243   108.59114415
 H      6   5   1     1.838401919698   171.85600099     9.94180906

------------------------------------------------------------------------------
                   ___                                                        
                  /   \      - P O W E R E D   B Y -                         
                 /     \                                                     
                 |  |  |   _    _      __       _____    __    __             
                 |  |  |  | |  | |    /  \     |  _  \  |  |  /  |          
                  \  \/   | |  | |   /    \    | | | |  |  | /  /          
                 / \  \   | |__| |  /  /\  \   | |_| |  |  |/  /          
                |  |  |   |  __  | /  /__\  \  |    /   |      \           
                |  |  |   | |  | | |   __   |  |    \   |  |\   \          
                \     /   | |  | | |  |  |  |  | |\  \  |  | \   \       
                 \___/    |_|  |_| |__|  |__|  |_| \__\ |__|  \__/        
                                                                              
                      - O R C A' S   B I G   F R I E N D -                    
                                      &                                       
                       - I N T E G R A L  F E E D E R -                       
                                                                              
 v1 FN, 2020, v2 2021, v3 2022-2024                                           
------------------------------------------------------------------------------


----------------------
SHARK INTEGRAL PACKAGE
----------------------

Number of atoms                             ...     35
Number of basis functions                   ...    322
Number of shells                            ...    154
Maximum angular momentum                    ...      2
Integral batch strategy                     ... SHARK/LIBINT Hybrid
RI-J (if used) integral strategy            ... SPLIT-RIJ (Revised 2003 algorithm where possible)
Printlevel                                  ...      1
Contraction scheme used                     ... SEGMENTED contraction
Prescreening option                         ... SCHWARTZ
   Thresh                                   ... 2.500e-11
   Tcut                                     ... 2.500e-12
   Tpresel                                  ... 2.500e-12 
Coulomb Range Separation                    ... NOT USED
Exchange Range Separation                   ... NOT USED
Multipole approximations                    ... NOT USED
Finite Nucleus Model                        ... NOT USED
CABS basis                                  ... NOT available
Auxiliary Coulomb fitting basis             ... AVAILABLE
   # of basis functions in Aux-J            ...   1183
   # of shells in Aux-J                     ...    385
   Maximum angular momentum in Aux-J        ...      4
Auxiliary J/K fitting basis                 ... NOT available
Auxiliary Correlation fitting basis         ... NOT available
Auxiliary 'external' fitting basis          ... NOT available

Checking pre-screening integrals            ... done (  0.0 sec) Dimension = 154
   => SHARK Basis and OBASIS are compatible. Storing Pre-screening
Shell pair information
Shell pair cut-off parameter TPreSel        ...   2.5e-12
Total number of shell pairs                 ...     11935
Shell pairs after pre-screening             ...      8446
Total number of primitive shell pairs       ...     69489
Primitive shell pairs kept                  ...     27524
          la=0 lb=0:   2814 shell pairs
          la=1 lb=0:   2888 shell pairs
          la=1 lb=1:    743 shell pairs
          la=2 lb=0:   1208 shell pairs
          la=2 lb=1:    650 shell pairs
          la=2 lb=2:    143 shell pairs

Checking whether 4 symmetric matrices of dimension 322 fit in memory
:Max Core in MB      =   4096.00
 MB in use           =     15.93
 MB left             =   4080.07
 MB needed           =      1.59
 Data fit in memory  = YES
Calculating RI/J V-Matrix + Cholesky decomp.... done (  0.3 sec)
Calculating Nuclear repulsion               ... done (  0.0 sec) ENN=   1636.676957634842 Eh

Diagonalization of the overlap matrix:
Smallest eigenvalue                        ... 4.023e-04
Time for diagonalization                   ...    0.010 sec
Threshold for overlap eigenvalues          ... 1.000e-07
Number of eigenvalues below threshold      ... 0
Time for construction of square roots      ...    0.018 sec
Total time needed                          ...    0.045 sec

-------------------
DFT GRID GENERATION
-------------------

General Integration Accuracy     IntAcc      ... 4.388
Radial Grid Type                 RadialGrid  ... OptM3 with GC (2021)
Angular Grid (max. ang.)         AngularGrid ... 4 (Lebedev-302)
Angular grid pruning method      GridPruning ... 4 (adaptive)
Weight generation scheme         WeightScheme... mBecke (2022)
Basis function cutoff            BFCut       ... 1.0000e-11
Integration weight cutoff        WCut        ... 1.0000e-14
Partially contracted basis set               ... off
Rotationally invariant grid construction     ... off
Angular grids for H and He will be reduced by one unit

Total number of grid points                  ...   170381
Total number of batches                      ...     2678
Average number of points per batch           ...       63
Average number of grid points per atom       ...     4868

--------------------
COSX GRID GENERATION
--------------------

GRIDX 1
-------
General Integration Accuracy     IntAcc      ... 3.816
Radial Grid Type                 RadialGrid  ... OptM3 with GC (2021)
Angular Grid (max. ang.)         AngularGrid ... 1 (Lebedev-50)
Angular grid pruning method      GridPruning ... 4 (adaptive)
Weight generation scheme         WeightScheme... mBecke (2022)
Basis function cutoff            BFCut       ... 1.0000e-11
Integration weight cutoff        WCut        ... 1.0000e-14
Partially contracted basis set               ... on
Rotationally invariant grid construction     ... off
Angular grids for H and He will be reduced by one unit

Total number of grid points                  ...    21681
Total number of batches                      ...      190
Average number of points per batch           ...      114
Average number of grid points per atom       ...      619
UseSFitting                                  ... on

GRIDX 2
-------
General Integration Accuracy     IntAcc      ... 4.020
Radial Grid Type                 RadialGrid  ... OptM3 with GC (2021)
Angular Grid (max. ang.)         AngularGrid ... 2 (Lebedev-110)
Angular grid pruning method      GridPruning ... 4 (adaptive)
Weight generation scheme         WeightScheme... mBecke (2022)
Basis function cutoff            BFCut       ... 1.0000e-11
Integration weight cutoff        WCut        ... 1.0000e-14
Partially contracted basis set               ... on
Rotationally invariant grid construction     ... off
Angular grids for H and He will be reduced by one unit

Total number of grid points                  ...    47469
Total number of batches                      ...      389
Average number of points per batch           ...      122
Average number of grid points per atom       ...     1356
UseSFitting                                  ... on

GRIDX 3
-------
General Integration Accuracy     IntAcc      ... 4.338
Radial Grid Type                 RadialGrid  ... OptM3 with GC (2021)
Angular Grid (max. ang.)         AngularGrid ... 3 (Lebedev-194)
Angular grid pruning method      GridPruning ... 4 (adaptive)
Weight generation scheme         WeightScheme... mBecke (2022)
Basis function cutoff            BFCut       ... 1.0000e-11
Integration weight cutoff        WCut        ... 1.0000e-14
Partially contracted basis set               ... on
Rotationally invariant grid construction     ... off
Angular grids for H and He will be reduced by one unit

Total number of grid points                  ...   104088
Total number of batches                      ...      830
Average number of points per batch           ...      125
Average number of grid points per atom       ...     2974
UseSFitting                                  ... on
Grids setup in   7.1 sec
Initializing property integral containers    ... done (  0.0 sec)

SHARK setup successfully completed in   8.2 seconds

Maximum memory used throughout the entire STARTUP-calculation: 72.9 MB
Occupation numbers will be reassigned to an Aufbau configuration
             **** ENERGY FILE WAS UPDATED (Inputs/Catechin_CPCM.en.tmp) ****
Finished Guess after   0.6 sec
Maximum memory used throughout the entire GUESS-calculation: 26.1 MB
--------------------
CPCM SOLVATION MODEL
--------------------
CPCM parameters:
  Epsilon                                         ...      80.1510
  Refrac                                          ...       1.3328
  Rsolv                                           ...       1.3000
  Surface type                                    ... GAUSSIAN VDW
  Discretization scheme                           ... Constant charge density
    Threshold for H atoms                         ...       5.0000 (charges/Ang^2)
    Threshold for non-H atoms                     ...       5.0000 (charges/Ang^2)
  Epsilon function type                           ...         CPCM
Solvent:                                          ... WATER
Radii:
  Scheme                                          ... Element-dependent radii
  Radius for O  used is    3.4469 Bohr (=   1.8240 Ang.)
  Radius for C  used is    3.8550 Bohr (=   2.0400 Ang.)
  Radius for H  used is    2.4944 Bohr (=   1.3200 Ang.)
Calculating surface                               ...        done! (  0.0s)
Cavity surface points                             ...         3010
Cavity Volume                                     ...    2161.3152
Cavity Surface-area                               ...    1120.5800
Calculating surface distance matrix               ...        done! (  0.1s)
Performing Cholesky decomposition & store         ...        done! (  0.8s)
Overall time for CPCM initialization              ...                 0.9s

----------------------------------------D-I-I-S--------------------------------------------
Iteration    Energy (Eh)           Delta-E    RMSDP     MaxDP     DIISErr   Damp  Time(sec)
-------------------------------------------------------------------------------------------
               ***  Starting incremental Fock matrix formation  ***
    1    -1030.7783228025671178     0.00e+00  4.39e-05  2.00e-03  6.49e-03  0.700  20.5
    2    -1030.7784800475076281    -1.57e-04  4.19e-05  1.78e-03  5.19e-03  0.700  11.1
                               ***Turning on AO-DIIS***
    3    -1030.7786061418098598    -1.26e-04  3.59e-05  1.44e-03  3.94e-03  0.700   9.9
                              *** Initializing SOSCF ***
---------------------------------------S-O-S-C-F--------------------------------------
Iteration    Energy (Eh)           Delta-E    RMSDP     MaxDP     MaxGrad    Time(sec)
--------------------------------------------------------------------------------------
    4    -1030.7787001236990818    -9.40e-05  9.32e-05  3.55e-03  2.87e-03    10.5
               *** Restarting incremental Fock matrix formation ***
    5    -1030.7789365179589822    -2.36e-04  9.53e-06  4.18e-04  8.61e-05    22.1
    6    -1030.7789371925707655    -6.75e-07  2.63e-06  9.71e-05  1.53e-05    13.3
    7    -1030.7789371903093070     2.26e-09  1.20e-06  4.78e-05  3.56e-05    12.9
                 **** Energy Check signals convergence ****

               *****************************************************
               *                     SUCCESS                       *
               *           SCF CONVERGED AFTER   7 CYCLES          *
               *****************************************************

Recomputing exchange energy using gridx3       ... done (   29.348 sec)
Old exchange energy                            :    -26.466092999 Eh
New exchange energy                            :    -26.466121178 Eh
Exchange energy change after final integration :     -0.000028179 Eh
Total energy after final integration           :  -1030.778965401 Eh
             **** ENERGY FILE WAS UPDATED (Inputs/Catechin_CPCM.en.tmp) ****

----------------
TOTAL SCF ENERGY
----------------

Total Energy       :      -1030.77896540120150 Eh          -28048.92163 eV

Components:
Nuclear Repulsion  :       1636.67695763484176 Eh           44536.24420 eV
Electronic Energy  :      -2667.41308104404015 Eh          -72584.00003 eV
One Electron Energy:      -4661.42103821128057 Eh         -126843.71506 eV
Two Electron Energy:       1994.00795716724042 Eh           54259.71503 eV
CPCM Dielectric    :         -0.04281381282622 Eh              -1.16502 eV

Virial components:
Potential Energy   :      -2055.59595895471466 Eh          -55935.60975 eV
Kinetic Energy     :       1024.81699355351338 Eh           27886.68813 eV
Virial Ratio       :          2.00581759659060

DFT components:
N(Alpha)           :       76.000009709158 electrons
N(Beta)            :       76.000009709158 electrons
N(Total)           :      152.000019418317 electrons
E(X)               :     -105.198189669667 Eh       
E(C)               :       -6.208513790997 Eh       
E(XC)              :     -111.406703460664 Eh       

CPCM Solvation Model Properties:
Surface-charge          :         -0.01555897487775
Corrected charge        :         -0.00000000000000
Outlying charge corr.   :          0.00001312043654 Eh               0.00036 eV
Free-energy (cav+disp)  :  This term is not implemented in the current solvation scheme

---------------
SCF CONVERGENCE
---------------

  Last Energy change         ...   -2.2615e-09  Tolerance :   1.0000e-08
  Last MAX-Density change    ...    4.7822e-05  Tolerance :   1.0000e-07
  Last RMS-Density change    ...    1.1962e-06  Tolerance :   5.0000e-09
  Last DIIS Error            ...    2.8712e-03  Tolerance :   5.0000e-07
  Last Orbital Gradient      ...    3.5554e-05  Tolerance :   1.0000e-05
  Last Orbital Rotation      ...    6.8060e-05  Tolerance :   1.0000e-05


Total SCF time: 0 days 0 hours 2 min 23 sec 
Finished LeanSCF after 144.4 sec

Maximum memory used throughout the entire LEANSCF-calculation: 92.3 MB

------------------------------------------------------------------------------
                         ORCA PROPERTY INTEGRAL CALCULATIONS
------------------------------------------------------------------------------

GBWName                                   ... Inputs/Catechin_CPCM.gbw
Number of atoms                           ...     35
Number of basis functions                 ...    322
Max core memory                           ...   4096 MB

Dipole integrals                          ... YES
Quadrupole integrals                      ...  NO
Linear momentum integrals                 ...  NO
Angular momentum integrals                ...  NO
Higher moments length integrals           ...  NO
Higher moments velocity integrals         ...  NO
Kinetic energy integrals                  ...  NO
GIAO right hand sides                     ...  NO
GIAO dipole derivative integrals          ...  NO
SOC integrals                             ...  NO
EPR diamagnetic integrals (GIAO)          ...  NO
EPR gauge integrals                       ...  NO
Field gradient integrals                  ...  NO (   0 nuclei)
Spin-dipole/Fermi contact integrals       ...  NO (   0 nuclei)
Contact density integrals                 ...  NO (   0 nuclei)
Nucleus-orbit integrals                   ...  NO (   0 nuclei)
Geometric perturbations                   ...  NO (  35 nuclei)

Choice of electric origin   ... Center of mass
Position of electric origin ... ( -0.0123, -0.0044,  0.0512) 
Choice of magnetic origin   ... GIAO
Position of magnetic origin ... (  0.0000,  0.0000,  0.0000) 

Calculating integrals                     ... Electric Dipole (Length)     done (  0.1 sec)

Property integrals calculated in   0.1 sec

Maximum memory used throughout the entire PROPINT-calculation: 25.8 MB

-------------------------   --------------------
FINAL SINGLE POINT ENERGY     -1030.778965401202
-------------------------   --------------------

------------------------------------------------------------------------------
                         ORCA SCF GRADIENT CALCULATION
------------------------------------------------------------------------------

Nuc. rep. gradient        (SHARK) ... done (  0.0 sec)
HCore & Overlap gradient  (SHARK) ... done (  1.0 sec)
Split-RIJ-J gradient      (SHARK) ... done (  4.8 sec)
COSX-gradient                     ... done ( 65.5 sec)
XC gradient                       ... done ( 15.9 sec)
CPCM gradient                     ... done (  4.9 sec)

------------------
CARTESIAN GRADIENT
------------------

   1   O   :   -0.000003035    0.000319887   -0.000022063
   2   O   :    0.000470755   -0.000013141    0.000092911
   3   O   :    0.000100441    0.000071306   -0.000049986
   4   O   :   -0.000056155   -0.000083104   -0.000007711
   5   O   :    0.000167263   -0.000078211   -0.000218689
   6   O   :    0.000246727   -0.000126307   -0.000128125
   7   C   :   -0.000361291   -0.000255392    0.000061576
   8   C   :    0.000014929    0.000109197   -0.000040651
   9   C   :    0.000143596    0.000234981   -0.000235943
  10   C   :   -0.000307832   -0.000193022    0.000039366
  11   C   :    0.000013904   -0.000324584   -0.000021125
  12   C   :    0.000047957   -0.000155186   -0.000403971
  13   C   :    0.000123678    0.000190506    0.000018202
  14   C   :    0.000120938    0.000083389    0.000038244
  15   C   :   -0.000182876    0.000153530    0.000262047
  16   C   :    0.000196705    0.000008765    0.000167018
  17   C   :    0.000015232   -0.000003993   -0.000002596
  18   C   :   -0.000216276   -0.000039853   -0.000039868
  19   C   :    0.000460923    0.000135606    0.000478063
  20   C   :   -0.000095480    0.000082422    0.000104576
  21   C   :   -0.000403371   -0.000167381   -0.000446090
  22   H   :   -0.000023875   -0.000014014   -0.000023058
  23   H   :    0.000077842   -0.000012107    0.000022316
  24   H   :   -0.000096772   -0.000009782    0.000012865
  25   H   :    0.000073658    0.000039480    0.000010499
  26   H   :    0.000028847   -0.000000169    0.000002410
  27   H   :   -0.000102679    0.000041968    0.000052820
  28   H   :   -0.000180890    0.000001726    0.000054042
  29   H   :    0.000006947    0.000006148   -0.000000370
  30   H   :   -0.000017756   -0.000081183   -0.000009364
  31   H   :   -0.000158996    0.000081121    0.000118275
  32   H   :   -0.000014383   -0.000050513    0.000018615
  33   H   :    0.000038631    0.000013034    0.000002393
  34   H   :   -0.000082088   -0.000003441    0.000038288
  35   H   :   -0.000045220    0.000038320    0.000055082

Difference to translation invariance:
           :   -0.0000000001    0.0000000000    0.0000000001

Difference to rotation invariance:
           :    0.0001307176    0.0013736918   -0.0001880314

Norm of the Cartesian gradient     ...    0.0016286238
RMS gradient                       ...    0.0001589374
MAX gradient                       ...    0.0004780630

-------
TIMINGS
-------

Total SCF gradient time     ....       92.078 sec

Densities                   ....       0.002 sec  (  0.0%)
One electron gradient       ....       0.951 sec  (  1.0%)
RI-J Coulomb gradient       ....       4.796 sec  (  5.2%)
COSX gradient               ....      65.482 sec  ( 71.1%)
XC gradient                 ....      15.949 sec  ( 17.3%)
CPCM gradient               ....       4.857 sec  (  5.3%)
   A-Matrix (El+Nuc)        ....       0.169 sec  (  0.2%)
   Potential                ....       4.688 sec  (  5.1%)

Maximum memory used throughout the entire SCFGRAD-calculation: 56.6 MB
------------------------------------------------------------------------------
                         ORCA GEOMETRY RELAXATION STEP
------------------------------------------------------------------------------

Reading the OPT-File                    .... done
Getting information on internals        .... done
Copying old internal coords+grads       .... done
Making the new internal coordinates     .... (2022 redundants) done
Validating the new internal coordinates .... (2022 redundants) done
Calculating the B-matrix                .... done
Calculating the G,G- and P matrices     .... done
Transforming gradient to internals      .... done
Projecting the internal gradient        .... done
Number of atoms                         ....  35
Number of internal coordinates          .... 183
Current Energy                          .... -1030.778965401 Eh
Current gradient norm                   ....     0.001628624 Eh/bohr
Maximum allowed component of the step   ....  0.300
Current trust radius                    ....  0.675
Updating the Hessian (BFGS)             .... done
Forming the augmented Hessian           .... done
Diagonalizing the augmented Hessian     .... done
Last element of RFO vector              ....  0.999261850
Lowest eigenvalues of augmented Hessian:
 -0.000009693  0.002724996  0.012572263  0.014855538  0.019368600
Length of the computed step             ....  0.038443934
The final length of the internal step   ....  0.038443934
Converting the step to Cartesian space:
 Initial RMS(Int)=    0.0028418573
Transforming coordinates:
 Iter   0:  RMS(Cart)=    0.0073844987 RMS(Int)=    0.0028412008
done
Storing new coordinates                 .... done
The predicted energy change is          ....    -0.000004854
Previously predicted energy change      ....    -0.000013350
Actually observed energy change         ....    -0.000021668
Ratio of predicted to observed change   ....     1.623072064
New trust radius                        ....     0.450000000

                                .--------------------.
          ----------------------|Geometry convergence|-------------------------
          Item                value                   Tolerance       Converged
          ---------------------------------------------------------------------
          Energy change      -0.0000216684            0.0000050000      NO
          RMS gradient        0.0000908332            0.0001000000      YES
          MAX gradient        0.0003948230            0.0003000000      NO
          RMS step            0.0028418573            0.0020000000      NO
          MAX step            0.0201506861            0.0040000000      NO
          -------------------------------------------------------------------------
          ........................................................
          Max(Bonds)      0.0007      Max(Angles)    0.06
          Max(Dihed)        1.15      Max(Improp)    0.00
          ---------------------------------------------------------------------

The optimization has not yet converged - more geometry cycles are needed


    ---------------------------------------------------------------------------
                         Redundant Internal Coordinates
                            (Angstroem and degrees)

        Definition                    Value    dE/dq     Step     New-Value
    ----------------------------------------------------------------------------
     1. B(C   6,O   1)                1.4229 -0.000193  0.0000    1.4229   
     2. B(C   7,O   0)                1.4466  0.000103 -0.0005    1.4461   
     3. B(C   7,C   6)                1.5389  0.000199 -0.0002    1.5387   
     4. B(C   8,C   6)                1.5317  0.000013  0.0000    1.5317   
     5. B(C   9,C   8)                1.5103 -0.000285  0.0004    1.5107   
     6. B(C  10,C   9)                1.4001 -0.000095  0.0000    1.4001   
     7. B(C  10,O   0)                1.3720 -0.000027  0.0001    1.3721   
     8. B(C  11,C   7)                1.5101 -0.000053  0.0003    1.5104   
     9. B(C  12,C   9)                1.4076  0.000135 -0.0002    1.4074   
    10. B(C  12,O   2)                1.3678  0.000015 -0.0000    1.3677   
    11. B(C  13,C  10)                1.4019  0.000062 -0.0001    1.4019   
    12. B(C  14,C  11)                1.4053  0.000339 -0.0004    1.4049   
    13. B(C  15,C  11)                1.3953 -0.000090  0.0001    1.3954   
    14. B(C  16,C  12)                1.3955 -0.000199  0.0002    1.3958   
    15. B(C  17,O   3)                1.3672 -0.000067  0.0001    1.3673   
    16. B(C  17,C  16)                1.4009 -0.000059 -0.0000    1.4008   
    17. B(C  17,C  13)                1.3949 -0.000167  0.0001    1.3950   
    18. B(C  18,C  14)                1.3925 -0.000262  0.0004    1.3928   
    19. B(C  18,O   4)                1.3681 -0.000223  0.0002    1.3684   
    20. B(C  19,C  15)                1.3996  0.000162 -0.0002    1.3994   
    21. B(C  20,C  19)                1.3936 -0.000328  0.0004    1.3940   
    22. B(C  20,C  18)                1.4127  0.000395 -0.0007    1.4120   
    23. B(C  20,O   5)                1.3671 -0.000229  0.0003    1.3674   
    24. B(H  21,C   6)                1.1012 -0.000022  0.0001    1.1013   
    25. B(H  22,C   7)                1.0992 -0.000002 -0.0000    1.0991   
    26. B(H  23,C   8)                1.1000 -0.000016  0.0000    1.1000   
    27. B(H  24,C   8)                1.0973  0.000010  0.0000    1.0974   
    28. B(H  25,C  13)                1.0863 -0.000014  0.0000    1.0863   
    29. B(H  26,C  14)                1.0879 -0.000019 -0.0000    1.0879   
    30. B(H  27,O   1)                0.9720 -0.000025  0.0001    0.9721   
    31. B(H  28,C  15)                1.0867  0.000005 -0.0000    1.0867   
    32. B(H  29,C  16)                1.0865 -0.000016  0.0000    1.0865   
    33. B(H  30,C  19)                1.0882  0.000001 -0.0000    1.0881   
    34. B(H  31,O   2)                0.9726 -0.000017  0.0000    0.9727   
    35. B(H  32,O   3)                0.9726 -0.000012  0.0000    0.9726   
    36. B(H  33,O   4)                0.9725 -0.000044  0.0000    0.9725   
    37. B(H  34,O   5)                0.9728 -0.000023 -0.0000    0.9728   
    38. A(C   7,O   0,C  10)          117.78 -0.000226    0.01    117.79   
    39. A(C   6,O   1,H  27)          107.33  0.000191   -0.04    107.29   
    40. A(C  12,O   2,H  31)          109.25  0.000090   -0.02    109.23   
    41. A(C  17,O   3,H  32)          109.33  0.000072   -0.02    109.31   
    42. A(C  18,O   4,H  33)          108.91  0.000140   -0.02    108.89   
    43. A(C  20,O   5,H  34)          108.88  0.000126   -0.01    108.87   
    44. A(O   1,C   6,C   8)          111.68 -0.000138    0.05    111.72   
    45. A(C   8,C   6,H  21)          109.90  0.000128   -0.02    109.88   
    46. A(C   7,C   6,C   8)          109.35 -0.000159    0.03    109.38   
    47. A(O   1,C   6,C   7)          107.38  0.000257   -0.01    107.36   
    48. A(C   7,C   6,H  21)          107.80 -0.000040   -0.02    107.78   
    49. A(O   1,C   6,H  21)          110.62 -0.000045   -0.02    110.60   
    50. A(C   6,C   7,C  11)          114.19 -0.000035   -0.06    114.12   
    51. A(C  11,C   7,H  22)          109.35  0.000077   -0.03    109.32   
    52. A(C   6,C   7,H  22)          108.03 -0.000037    0.04    108.07   
    53. A(O   0,C   7,C  11)          107.45 -0.000046    0.04    107.49   
    54. A(O   0,C   7,H  22)          108.52 -0.000050    0.02    108.54   
    55. A(O   0,C   7,C   6)          109.18  0.000091   -0.01    109.17   
    56. A(C   6,C   8,C   9)          110.98  0.000054   -0.01    110.97   
    57. A(C   9,C   8,H  24)          110.39 -0.000126    0.02    110.41   
    58. A(C   6,C   8,H  24)          109.78  0.000048   -0.01    109.77   
    59. A(C   9,C   8,H  23)          111.21  0.000067   -0.03    111.18   
    60. A(C   6,C   8,H  23)          107.87 -0.000076    0.03    107.90   
    61. A(H  23,C   8,H  24)          106.47  0.000034    0.00    106.48   
    62. A(C   8,C   9,C  10)          120.92  0.000063   -0.01    120.91   
    63. A(C  10,C   9,C  12)          117.13 -0.000061    0.02    117.15   
    64. A(C   8,C   9,C  12)          121.94 -0.000002   -0.01    121.94   
    65. A(C   9,C  10,C  13)          122.20 -0.000010   -0.01    122.18   
    66. A(O   0,C  10,C  13)          115.60 -0.000107    0.01    115.62   
    67. A(O   0,C  10,C   9)          122.19  0.000118    0.00    122.19   
    68. A(C  14,C  11,C  15)          118.93  0.000003    0.00    118.94   
    69. A(C   7,C  11,C  15)          120.51  0.000024   -0.02    120.49   
    70. A(C   7,C  11,C  14)          120.55 -0.000027    0.02    120.57   
    71. A(O   2,C  12,C   9)          116.29  0.000041    0.01    116.31   
    72. A(C   9,C  12,C  16)          122.08  0.000049   -0.02    122.06   
    73. A(O   2,C  12,C  16)          121.63 -0.000090    0.00    121.63   
    74. A(C  17,C  13,H  25)          121.40 -0.000020    0.00    121.40   
    75. A(C  10,C  13,H  25)          119.72  0.000032   -0.02    119.71   
    76. A(C  10,C  13,C  17)          118.88 -0.000012    0.01    118.89   
    77. A(C  11,C  14,C  18)          121.03 -0.000066   -0.00    121.03   
    78. A(C  11,C  14,H  26)          120.21  0.000159   -0.04    120.16   
    79. A(C  18,C  14,H  26)          118.76 -0.000093    0.05    118.81   
    80. A(C  11,C  15,C  19)          120.42  0.000023   -0.00    120.42   
    81. A(C  19,C  15,H  28)          119.53 -0.000002   -0.00    119.53   
    82. A(C  11,C  15,H  28)          120.05 -0.000021    0.00    120.06   
    83. A(C  17,C  16,H  29)          120.09  0.000099   -0.02    120.07   
    84. A(C  12,C  16,H  29)          120.94 -0.000067    0.01    120.94   
    85. A(C  12,C  16,C  17)          118.97 -0.000032    0.01    118.98   
    86. A(C  13,C  17,C  16)          120.73  0.000066   -0.01    120.72   
    87. A(O   3,C  17,C  16)          116.92 -0.000100    0.03    116.94   
    88. A(O   3,C  17,C  13)          122.35  0.000034   -0.01    122.33   
    89. A(C  14,C  18,C  20)          119.68  0.000009    0.01    119.69   
    90. A(O   4,C  18,C  20)          116.87 -0.000091    0.04    116.91   
    91. A(O   4,C  18,C  14)          123.44  0.000083   -0.05    123.40   
    92. A(C  20,C  19,H  30)          118.91 -0.000207    0.05    118.96   
    93. A(C  15,C  19,H  30)          120.44  0.000217   -0.04    120.40   
    94. A(C  15,C  19,C  20)          120.65 -0.000010   -0.01    120.64   
    95. A(O   5,C  20,C  18)          117.09  0.000011    0.02    117.11   
    96. A(C  18,C  20,C  19)          119.28  0.000041    0.00    119.28   
    97. A(O   5,C  20,C  19)          123.63 -0.000052   -0.02    123.61   
    98. D(C   8,C   6,O   1,H  27)     59.04  0.000141   -1.15     57.88   
    99. D(H  21,C   6,O   1,H  27)    -63.71  0.000106   -1.14    -64.86   
   100. D(C   7,C   6,O   1,H  27)    178.90  0.000028   -1.10    177.80   
   101. D(O   0,C   7,C   6,O   1)    176.52  0.000045   -0.06    176.46   
   102. D(C  11,C   7,O   0,C  10)    171.50  0.000021   -0.03    171.47   
   103. D(H  22,C   7,O   0,C  10)    -70.36  0.000059   -0.03    -70.39   
   104. D(C  11,C   7,C   6,O   1)     56.23  0.000062   -0.06     56.17   
   105. D(O   0,C   7,C   6,C   8)    -62.15 -0.000060    0.01    -62.14   
   106. D(C  11,C   7,C   6,H  21)    -62.98 -0.000003   -0.01    -63.00   
   107. D(C  11,C   7,C   6,C   8)    177.57 -0.000043    0.01    177.57   
   108. D(C   6,C   7,O   0,C  10)     47.17  0.000037    0.03     47.19   
   109. D(O   0,C   7,C   6,H  21)     57.30 -0.000020   -0.01     57.29   
   110. D(C   9,C   8,C   6,H  21)    -72.14  0.000048   -0.01    -72.14   
   111. D(C   9,C   8,C   6,O   1)    164.71  0.000109    0.00    164.71   
   112. D(C   9,C   8,C   6,C   7)     46.01 -0.000021   -0.03     45.98   
   113. D(H  23,C   8,C   6,O   1)     42.66  0.000043    0.02     42.68   
   114. D(H  23,C   8,C   6,C   7)    -76.04 -0.000087   -0.01    -76.05   
   115. D(H  23,C   8,C   6,H  21)    165.81 -0.000019    0.02    165.83   
   116. D(C  12,C   9,C   8,C   6)    162.99 -0.000027    0.05    163.04   
   117. D(C  10,C   9,C   8,H  23)    104.12 -0.000029    0.02    104.14   
   118. D(C  10,C   9,C   8,H  24)   -137.93 -0.000025    0.02   -137.91   
   119. D(C  12,C   9,C   8,H  23)    -76.92 -0.000042    0.06    -76.86   
   120. D(C  10,C   9,C   8,C   6)    -15.97 -0.000014    0.01    -15.96   
   121. D(C  13,C  10,C   9,C  12)     -0.90 -0.000013    0.01     -0.89   
   122. D(C  13,C  10,C   9,C   8)    178.11 -0.000025    0.04    178.15   
   123. D(O   0,C  10,C   9,C  12)   -179.70 -0.000029    0.01   -179.69   
   124. D(O   0,C  10,C   9,C   8)     -0.69 -0.000041    0.04     -0.65   
   125. D(C  13,C  10,O   0,C   7)    165.17  0.000024   -0.06    165.10   
   126. D(C   9,C  10,O   0,C   7)    -15.96  0.000040   -0.07    -16.03   
   127. D(C  14,C  11,C   7,C   6)     70.74  0.000030    0.37     71.11   
   128. D(C  14,C  11,C   7,O   0)    -50.51 -0.000031    0.39    -50.11   
   129. D(C  15,C  11,C   7,C   6)   -107.98  0.000037    0.42   -107.57   
   130. D(C  15,C  11,C   7,O   0)    130.77 -0.000023    0.44    131.21   
   131. D(C  14,C  11,C   7,H  22)   -168.10  0.000014    0.36   -167.74   
   132. D(C  16,C  12,C   9,C  10)      0.82  0.000011   -0.00      0.82   
   133. D(C  16,C  12,C   9,C   8)   -178.17  0.000023   -0.04   -178.21   
   134. D(O   2,C  12,C   9,C  10)   -179.43  0.000009   -0.01   -179.43   
   135. D(O   2,C  12,C   9,C   8)      1.58  0.000021   -0.04      1.54   
   136. D(C  16,C  12,O   2,H  31)      1.79  0.000024    0.01      1.80   
   137. D(C   9,C  12,O   2,H  31)   -177.97  0.000025    0.02   -177.95   
   138. D(H  25,C  13,C  10,C   9)   -179.92  0.000001   -0.00   -179.93   
   139. D(C  17,C  13,C  10,O   0)    179.14  0.000025   -0.01    179.12   
   140. D(C  17,C  13,C  10,C   9)      0.27  0.000007   -0.01      0.25   
   141. D(H  25,C  13,C  10,O   0)     -1.05  0.000018   -0.00     -1.06   
   142. D(H  26,C  14,C  11,C  15)   -179.10  0.000002   -0.01   -179.11   
   143. D(H  26,C  14,C  11,C   7)      2.15  0.000010    0.04      2.19   
   144. D(C  18,C  14,C  11,C  15)      0.14  0.000001   -0.01      0.14   
   145. D(C  18,C  14,C  11,C   7)   -178.60  0.000008    0.04   -178.56   
   146. D(H  28,C  15,C  11,C  14)    179.60 -0.000003    0.01    179.61   
   147. D(H  28,C  15,C  11,C   7)     -1.66 -0.000011   -0.03     -1.69   
   148. D(C  19,C  15,C  11,C  14)     -0.54 -0.000001    0.01     -0.52   
   149. D(C  19,C  15,C  11,C   7)    178.21 -0.000009   -0.03    178.18   
   150. D(H  29,C  16,C  12,C   9)    179.78 -0.000003   -0.01    179.77   
   151. D(H  29,C  16,C  12,O   2)      0.04 -0.000001   -0.00      0.04   
   152. D(C  17,C  16,C  12,C   9)     -0.11 -0.000003    0.00     -0.11   
   153. D(C  17,C  16,C  12,O   2)   -179.85 -0.000002    0.00   -179.85   
   154. D(C  16,C  17,C  13,H  25)   -179.32  0.000009   -0.00   -179.32   
   155. D(C  16,C  17,C  13,C  10)      0.49  0.000002    0.01      0.50   
   156. D(O   3,C  17,C  13,H  25)      0.25  0.000007   -0.01      0.24   
   157. D(O   3,C  17,C  13,C  10)   -179.95  0.000000    0.00   -179.95   
   158. D(C  16,C  17,O   3,H  32)   -179.79  0.000003    0.08   -179.71   
   159. D(O   3,C  17,C  16,C  12)    179.85 -0.000003    0.01    179.86   
   160. D(C  13,C  17,O   3,H  32)      0.63  0.000004    0.09      0.72   
   161. D(C  13,C  17,C  16,H  29)    179.55 -0.000004    0.00    179.55   
   162. D(C  13,C  17,C  16,C  12)     -0.56 -0.000004   -0.00     -0.56   
   163. D(O   3,C  17,C  16,H  29)     -0.04 -0.000003    0.01     -0.03   
   164. D(C  20,C  18,C  14,H  26)    179.61  0.000005   -0.02    179.59   
   165. D(C  20,C  18,C  14,C  11)      0.35  0.000005   -0.02      0.33   
   166. D(O   4,C  18,C  14,H  26)     -0.34  0.000004   -0.03     -0.37   
   167. D(O   4,C  18,C  14,C  11)   -179.60  0.000004   -0.03   -179.63   
   168. D(C  20,C  18,O   4,H  33)   -179.44 -0.000025    0.22   -179.22   
   169. D(C  14,C  18,O   4,H  33)      0.52 -0.000024    0.22      0.74   
   170. D(H  30,C  19,C  15,H  28)     -0.11  0.000002   -0.01     -0.12   
   171. D(H  30,C  19,C  15,C  11)   -179.97 -0.000001   -0.01   -179.99   
   172. D(C  20,C  19,C  15,H  28)   -179.70 -0.000003    0.01   -179.69   
   173. D(C  20,C  19,C  15,C  11)      0.43 -0.000005    0.01      0.44   
   174. D(C  18,C  20,C  19,H  30)   -179.53  0.000005   -0.02   -179.54   
   175. D(C  18,C  20,C  19,C  15)      0.07  0.000012   -0.04      0.03   
   176. D(O   5,C  20,C  19,H  30)      0.15  0.000001   -0.01      0.14   
   177. D(O   5,C  20,C  19,C  15)    179.75  0.000007   -0.04    179.72   
   178. D(C  19,C  20,C  18,C  14)     -0.46 -0.000012    0.05     -0.41   
   179. D(C  19,C  20,C  18,O   4)    179.50 -0.000010    0.05    179.55   
   180. D(O   5,C  20,C  18,C  14)    179.84 -0.000007    0.04    179.88   
   181. D(O   5,C  20,C  18,O   4)     -0.20 -0.000006    0.05     -0.15   
   182. D(C  19,C  20,O   5,H  34)      0.18 -0.000005    0.01      0.19   
   183. D(C  18,C  20,O   5,H  34)    179.87 -0.000009    0.02    179.88   
    ----------------------------------------------------------------------------

Geometry step timings:
Preparation and reading OPT file:      0.003 s ( 2.616 %)
Internal coordinates            :      0.001 s ( 1.353 %)
B/P matrices and projection     :      0.007 s ( 6.123 %)
Hessian update/contruction      :      0.026 s (24.101 %)
Making the step                 :      0.005 s ( 4.792 %)
Converting the step to Cartesian:      0.001 s ( 1.211 %)
Storing new data                :      0.003 s ( 3.041 %)
Checking convergence            :      0.004 s ( 3.588 %)
Final printing                  :      0.057 s (53.172 %)
Total time                      :      0.108 s

Time for energy+gradient        :    246.393 s
Time for complete geometry iter :    247.042 s

         *************************************************************
         *                GEOMETRY OPTIMIZATION CYCLE   8            *
         *************************************************************
---------------------------------
CARTESIAN COORDINATES (ANGSTROEM)
---------------------------------
  O      0.428700    0.651398   -0.238039
  O     -0.720586   -2.811299   -0.021980
  O      4.391916   -1.978443    0.263710
  O      4.681878    2.781322    0.081433
  O     -4.161905    1.344769    1.958368
  O     -5.852711    0.743295    0.002388
  C      0.109021   -1.700417    0.297872
  C     -0.335063   -0.524996   -0.590300
  C      1.587720   -2.003657    0.037796
  C      2.405093   -0.733299    0.019237
  C      1.788219    0.516899   -0.109992
  C     -1.797918   -0.171982   -0.461142
  C      3.806273   -0.747617    0.150672
  C      2.516785    1.714439   -0.092256
  C     -2.284793    0.440197    0.705884
  C     -2.692437   -0.473931   -1.488680
  C      4.560647    0.426543    0.170612
  C      3.903008    1.657906    0.053840
  C     -3.636976    0.742893    0.847226
  C     -4.053941   -0.180656   -1.351790
  C     -4.537307    0.425132   -0.193028
  H     -0.032702   -1.400650    1.348037
  H     -0.114494   -0.784834   -1.635262
  H      1.659880   -2.536622   -0.921739
  H      1.966192   -2.691094    0.804857
  H      1.996660    2.662610   -0.194643
  H     -1.602842    0.697475    1.513498
  H     -0.416345   -3.562962    0.514146
  H     -2.334542   -0.941739   -2.401952
  H      5.641505    0.394450    0.276636
  H     -4.751197   -0.416436   -2.153204
  H      5.351056   -1.867239    0.380983
  H      4.115450    3.567462   -0.002728
  H     -3.443687    1.521326    2.589868
  H     -6.361057    0.475757   -0.782725

----------------------------
CARTESIAN COORDINATES (A.U.)
----------------------------
  NO LB      ZA    FRAG     MASS         X           Y           Z
   0 O     8.0000    0    15.999    0.810126    1.230964   -0.449829
   1 O     8.0000    0    15.999   -1.361710   -5.312585   -0.041537
   2 O     8.0000    0    15.999    8.299518   -3.738716    0.498339
   3 O     8.0000    0    15.999    8.847468    5.255937    0.153886
   4 O     8.0000    0    15.999   -7.864860    2.541245    3.700780
   5 O     8.0000    0    15.999  -11.060021    1.404625    0.004513
   6 C     6.0000    0    12.011    0.206020   -3.213322    0.562897
   7 C     6.0000    0    12.011   -0.633177   -0.992098   -1.115504
   8 C     6.0000    0    12.011    3.000355   -3.786363    0.071423
   9 C     6.0000    0    12.011    4.544968   -1.385734    0.036352
  10 C     6.0000    0    12.011    3.379243    0.976797   -0.207855
  11 C     6.0000    0    12.011   -3.397572   -0.324999   -0.871432
  12 C     6.0000    0    12.011    7.192814   -1.412792    0.284729
  13 C     6.0000    0    12.011    4.756035    3.239820   -0.174339
  14 C     6.0000    0    12.011   -4.317633    0.831851    1.333927
  15 C     6.0000    0    12.011   -5.087969   -0.895600   -2.813197
  16 C     6.0000    0    12.011    8.618373    0.806050    0.322409
  17 C     6.0000    0    12.011    7.375616    3.132988    0.101743
  18 C     6.0000    0    12.011   -6.872888    1.403864    1.601026
  19 C     6.0000    0    12.011   -7.660838   -0.341391   -2.554514
  20 C     6.0000    0    12.011   -8.574268    0.803383   -0.364771
  21 H     1.0000    0     1.008   -0.061799   -2.646846    2.547421
  22 H     1.0000    0     1.008   -0.216363   -1.483121   -3.090198
  23 H     1.0000    0     1.008    3.136718   -4.793522   -1.741834
  24 H     1.0000    0     1.008    3.715565   -5.085430    1.520960
  25 H     1.0000    0     1.008    3.773141    5.031603   -0.367823
  26 H     1.0000    0     1.008   -3.028933    1.318037    2.860096
  27 H     1.0000    0     1.008   -0.786778   -6.733022    0.971594
  28 H     1.0000    0     1.008   -4.411645   -1.779629   -4.539032
  29 H     1.0000    0     1.008   10.660900    0.745402    0.522767
  30 H     1.0000    0     1.008   -8.978460   -0.786949   -4.068966
  31 H     1.0000    0     1.008   10.112031   -3.528569    0.719953
  32 H     1.0000    0     1.008    7.777074    6.741527   -0.005155
  33 H     1.0000    0     1.008   -6.507625    2.874890    4.894141
  34 H     1.0000    0     1.008  -12.020656    0.899050   -1.479136

--------------------------------
INTERNAL COORDINATES (ANGSTROEM)
--------------------------------
 O      0   0   0     0.000000000000     0.00000000     0.00000000
 O      1   0   0     3.654833740301     0.00000000     0.00000000
 O      1   2   0     4.782770894582    74.53913741     0.00000000
 O      1   2   3     4.767406341223   134.41559211   356.57339106
 O      1   2   3     5.136012000905    79.72111388   210.44475728
 O      5   1   2     2.654515962674   102.92131411   290.22252264
 C      2   1   3     1.422888627259    24.53147563    36.91420449
 C      1   2   3     1.446141075298    22.72298675   134.68198179
 C      7   2   1     1.531712972126   111.72380188   236.89217094
 C      9   7   2     1.510713210067   110.97337897   164.70876864
 C      1   2   3     1.372142989737   102.30867585   359.08171838
 C      8   1   2     1.510379228053   107.49136069   120.87422552
 C      3   1   2     1.367730962500    30.87349191   182.69282793
 C     11   1   2     1.401865220160   115.61850069   182.89091507
 C     12   8   1     1.404905762517   120.56581127   309.88574388
 C     12   8   1     1.395410981739   120.48605016   131.20825205
 C     13   3   1     1.395754232587   121.62969241   179.91489242
 C      4   1   2     1.367283961107    28.76045438     3.94723145
 C      5   1   2     1.368371738724    41.45147575   305.88860445
 C     16  12   8     1.399443403229   120.41688133   178.17658872
 C      6   5   1     1.367371015241    62.95316810    11.48966054
 H      7   2   1     1.101268204891   110.59994773   114.15404977
 H      8   1   2     1.099142119301   108.53606725   239.01231871
 H      9   7   2     1.099984309381   107.90067857    42.67956427
 H      9   7   2     1.097357921380   109.77274760   287.03295994
 H     14  11   1     1.086297250853   119.70888730   358.94477932
 H     15  12   8     1.087882568754   120.16442458     2.18896244
 H      2   1   3     0.972106353047   131.81819742    38.18179657
 H     16  12   8     1.086737942999   120.05711726   358.30849707
 H     17  13   3     1.086520097034   120.94443046     0.03758809
 H     20  16  12     1.088127216781   120.39514138   180.01146230
 H      3   1   2     0.972661215208   140.07709455   185.46603381
 H      4   1   2     0.972594516899    80.54632831   184.15371353
 H      5   1   2     0.972522975280    69.02955600   109.18862043
 H      6   5   1     0.972828593835   171.81726777    10.18815834

---------------------------
INTERNAL COORDINATES (A.U.)
---------------------------
 O      0   0   0     0.000000000000     0.00000000     0.00000000
 O      1   0   0     6.906634834183     0.00000000     0.00000000
 O      1   2   0     9.038127152050    74.53913741     0.00000000
 O      1   2   3     9.009092354030   134.41559211   356.57339106
 O      1   2   3     9.705656102244    79.72111388   210.44475728
 O      5   1   2     5.016308187577   102.92131411   290.22252264
 C      2   1   3     2.688869824590    24.53147563    36.91420449
 C      1   2   3     2.732810583328    22.72298675   134.68198179
 C      7   2   1     2.894518033093   111.72380188   236.89217094
 C      9   7   2     2.854834233923   110.97337897   164.70876864
 C      1   2   3     2.592974467184   102.30867585   359.08171838
 C      8   1   2     2.854203099383   107.49136069   120.87422552
 C      3   1   2     2.584636944010    30.87349191   182.69282793
 C     11   1   2     2.649141342771   115.61850069   182.89091507
 C     12   8   1     2.654887135125   120.56581127   309.88574388
 C     12   8   1     2.636944599753   120.48605016   131.20825205
 C     13   3   1     2.637593249851   121.62969241   179.91489242
 C      4   1   2     2.583792233795    28.76045438     3.94723145
 C      5   1   2     2.585847835586    41.45147575   305.88860445
 C     16  12   8     2.644564772025   120.41688133   178.17658872
 C      6   5   1     2.583956742268    62.95316810    11.48966054
 H      7   2   1     2.081095307238   110.59994773   114.15404977
 H      8   1   2     2.077077587737   108.53606725   239.01231871
 H      9   7   2     2.078669096340   107.90067857    42.67956427
 H      9   7   2     2.073705942298   109.77274760   287.03295994
 H     14  11   1     2.052804304144   119.70888730   358.94477932
 H     15  12   8     2.055800120812   120.16442458     2.18896244
 H      2   1   3     1.837014780303   131.81819742    38.18179657
 H     16  12   8     2.053637091610   120.05711726   358.30849707
 H     17  13   3     2.053225422396   120.94443046     0.03758809
 H     20  16  12     2.056262438581   120.39514138   180.01146230
 H      3   1   2     1.838063317829   140.07709455   185.46603381
 H      4   1   2     1.837937276292    80.54632831   184.15371353
 H      5   1   2     1.837802082226    69.02955600   109.18862043
 H      6   5   1     1.838379617597   171.81726777    10.18815834

------------------------------------------------------------------------------
                   ___                                                        
                  /   \      - P O W E R E D   B Y -                         
                 /     \                                                     
                 |  |  |   _    _      __       _____    __    __             
                 |  |  |  | |  | |    /  \     |  _  \  |  |  /  |          
                  \  \/   | |  | |   /    \    | | | |  |  | /  /          
                 / \  \   | |__| |  /  /\  \   | |_| |  |  |/  /          
                |  |  |   |  __  | /  /__\  \  |    /   |      \           
                |  |  |   | |  | | |   __   |  |    \   |  |\   \          
                \     /   | |  | | |  |  |  |  | |\  \  |  | \   \       
                 \___/    |_|  |_| |__|  |__|  |_| \__\ |__|  \__/        
                                                                              
                      - O R C A' S   B I G   F R I E N D -                    
                                      &                                       
                       - I N T E G R A L  F E E D E R -                       
                                                                              
 v1 FN, 2020, v2 2021, v3 2022-2024                                           
------------------------------------------------------------------------------


----------------------
SHARK INTEGRAL PACKAGE
----------------------

Number of atoms                             ...     35
Number of basis functions                   ...    322
Number of shells                            ...    154
Maximum angular momentum                    ...      2
Integral batch strategy                     ... SHARK/LIBINT Hybrid
RI-J (if used) integral strategy            ... SPLIT-RIJ (Revised 2003 algorithm where possible)
Printlevel                                  ...      1
Contraction scheme used                     ... SEGMENTED contraction
Prescreening option                         ... SCHWARTZ
   Thresh                                   ... 2.500e-11
   Tcut                                     ... 2.500e-12
   Tpresel                                  ... 2.500e-12 
Coulomb Range Separation                    ... NOT USED
Exchange Range Separation                   ... NOT USED
Multipole approximations                    ... NOT USED
Finite Nucleus Model                        ... NOT USED
CABS basis                                  ... NOT available
Auxiliary Coulomb fitting basis             ... AVAILABLE
   # of basis functions in Aux-J            ...   1183
   # of shells in Aux-J                     ...    385
   Maximum angular momentum in Aux-J        ...      4
Auxiliary J/K fitting basis                 ... NOT available
Auxiliary Correlation fitting basis         ... NOT available
Auxiliary 'external' fitting basis          ... NOT available

Checking pre-screening integrals            ... done (  0.0 sec) Dimension = 154
   => SHARK Basis and OBASIS are compatible. Storing Pre-screening
Shell pair information
Shell pair cut-off parameter TPreSel        ...   2.5e-12
Total number of shell pairs                 ...     11935
Shell pairs after pre-screening             ...      8446
Total number of primitive shell pairs       ...     69489
Primitive shell pairs kept                  ...     27525
          la=0 lb=0:   2814 shell pairs
          la=1 lb=0:   2888 shell pairs
          la=1 lb=1:    743 shell pairs
          la=2 lb=0:   1208 shell pairs
          la=2 lb=1:    650 shell pairs
          la=2 lb=2:    143 shell pairs

Checking whether 4 symmetric matrices of dimension 322 fit in memory
:Max Core in MB      =   4096.00
 MB in use           =     15.93
 MB left             =   4080.07
 MB needed           =      1.59
 Data fit in memory  = YES
Calculating RI/J V-Matrix + Cholesky decomp.... done (  0.3 sec)
Calculating Nuclear repulsion               ... done (  0.0 sec) ENN=   1636.682480310465 Eh

Diagonalization of the overlap matrix:
Smallest eigenvalue                        ... 4.023e-04
Time for diagonalization                   ...    0.010 sec
Threshold for overlap eigenvalues          ... 1.000e-07
Number of eigenvalues below threshold      ... 0
Time for construction of square roots      ...    0.020 sec
Total time needed                          ...    0.047 sec

-------------------
DFT GRID GENERATION
-------------------

General Integration Accuracy     IntAcc      ... 4.388
Radial Grid Type                 RadialGrid  ... OptM3 with GC (2021)
Angular Grid (max. ang.)         AngularGrid ... 4 (Lebedev-302)
Angular grid pruning method      GridPruning ... 4 (adaptive)
Weight generation scheme         WeightScheme... mBecke (2022)
Basis function cutoff            BFCut       ... 1.0000e-11
Integration weight cutoff        WCut        ... 1.0000e-14
Partially contracted basis set               ... off
Rotationally invariant grid construction     ... off
Angular grids for H and He will be reduced by one unit

Total number of grid points                  ...   170397
Total number of batches                      ...     2681
Average number of points per batch           ...       63
Average number of grid points per atom       ...     4868

--------------------
COSX GRID GENERATION
--------------------

GRIDX 1
-------
General Integration Accuracy     IntAcc      ... 3.816
Radial Grid Type                 RadialGrid  ... OptM3 with GC (2021)
Angular Grid (max. ang.)         AngularGrid ... 1 (Lebedev-50)
Angular grid pruning method      GridPruning ... 4 (adaptive)
Weight generation scheme         WeightScheme... mBecke (2022)
Basis function cutoff            BFCut       ... 1.0000e-11
Integration weight cutoff        WCut        ... 1.0000e-14
Partially contracted basis set               ... on
Rotationally invariant grid construction     ... off
Angular grids for H and He will be reduced by one unit

Total number of grid points                  ...    21682
Total number of batches                      ...      190
Average number of points per batch           ...      114
Average number of grid points per atom       ...      619
UseSFitting                                  ... on

GRIDX 2
-------
General Integration Accuracy     IntAcc      ... 4.020
Radial Grid Type                 RadialGrid  ... OptM3 with GC (2021)
Angular Grid (max. ang.)         AngularGrid ... 2 (Lebedev-110)
Angular grid pruning method      GridPruning ... 4 (adaptive)
Weight generation scheme         WeightScheme... mBecke (2022)
Basis function cutoff            BFCut       ... 1.0000e-11
Integration weight cutoff        WCut        ... 1.0000e-14
Partially contracted basis set               ... on
Rotationally invariant grid construction     ... off
Angular grids for H and He will be reduced by one unit

Total number of grid points                  ...    47468
Total number of batches                      ...      389
Average number of points per batch           ...      122
Average number of grid points per atom       ...     1356
UseSFitting                                  ... on

GRIDX 3
-------
General Integration Accuracy     IntAcc      ... 4.338
Radial Grid Type                 RadialGrid  ... OptM3 with GC (2021)
Angular Grid (max. ang.)         AngularGrid ... 3 (Lebedev-194)
Angular grid pruning method      GridPruning ... 4 (adaptive)
Weight generation scheme         WeightScheme... mBecke (2022)
Basis function cutoff            BFCut       ... 1.0000e-11
Integration weight cutoff        WCut        ... 1.0000e-14
Partially contracted basis set               ... on
Rotationally invariant grid construction     ... off
Angular grids for H and He will be reduced by one unit

Total number of grid points                  ...   104081
Total number of batches                      ...      831
Average number of points per batch           ...      125
Average number of grid points per atom       ...     2974
UseSFitting                                  ... on
Grids setup in   5.7 sec
Initializing property integral containers    ... done (  0.0 sec)

SHARK setup successfully completed in   6.7 seconds

Maximum memory used throughout the entire STARTUP-calculation: 72.9 MB
Occupation numbers will be reassigned to an Aufbau configuration
             **** ENERGY FILE WAS UPDATED (Inputs/Catechin_CPCM.en.tmp) ****
Finished Guess after   0.6 sec
Maximum memory used throughout the entire GUESS-calculation: 26.1 MB
--------------------
CPCM SOLVATION MODEL
--------------------
CPCM parameters:
  Epsilon                                         ...      80.1510
  Refrac                                          ...       1.3328
  Rsolv                                           ...       1.3000
  Surface type                                    ... GAUSSIAN VDW
  Discretization scheme                           ... Constant charge density
    Threshold for H atoms                         ...       5.0000 (charges/Ang^2)
    Threshold for non-H atoms                     ...       5.0000 (charges/Ang^2)
  Epsilon function type                           ...         CPCM
Solvent:                                          ... WATER
Radii:
  Scheme                                          ... Element-dependent radii
  Radius for O  used is    3.4469 Bohr (=   1.8240 Ang.)
  Radius for C  used is    3.8550 Bohr (=   2.0400 Ang.)
  Radius for H  used is    2.4944 Bohr (=   1.3200 Ang.)
Calculating surface                               ...        done! (  0.0s)
Cavity surface points                             ...         3008
Cavity Volume                                     ...    2160.9717
Cavity Surface-area                               ...    1120.3898
Calculating surface distance matrix               ...        done! (  0.1s)
Performing Cholesky decomposition & store         ...        done! (  0.7s)
Overall time for CPCM initialization              ...                 0.8s

----------------------------------------D-I-I-S--------------------------------------------
Iteration    Energy (Eh)           Delta-E    RMSDP     MaxDP     DIISErr   Damp  Time(sec)
-------------------------------------------------------------------------------------------
               ***  Starting incremental Fock matrix formation  ***
    1    -1030.7788376537860131     0.00e+00  1.97e-05  1.25e-03  3.60e-03  0.700  22.0
                              *** Initializing SOSCF ***
---------------------------------------S-O-S-C-F--------------------------------------
Iteration    Energy (Eh)           Delta-E    RMSDP     MaxDP     MaxGrad    Time(sec)
--------------------------------------------------------------------------------------
    2    -1030.7788652773942886    -2.76e-05  6.24e-05  3.72e-03  2.80e-03     9.6
               *** Restarting incremental Fock matrix formation ***
    3    -1030.7789418057859621    -7.65e-05  1.85e-05  9.53e-04  2.04e-04    22.0
    4    -1030.7789446612405300    -2.86e-06  6.28e-06  2.25e-04  4.24e-05    13.6
    5    -1030.7789445817766136     7.95e-08  3.21e-06  1.57e-04  6.41e-05    12.3
    6    -1030.7789447885152185    -2.07e-07  6.37e-07  1.44e-05  4.65e-06    13.0
    7    -1030.7789447935151657    -5.00e-09  3.07e-07  8.88e-06  4.70e-06     9.9
                 **** Energy Check signals convergence ****

               *****************************************************
               *                     SUCCESS                       *
               *           SCF CONVERGED AFTER   7 CYCLES          *
               *****************************************************

Recomputing exchange energy using gridx3       ... done (   28.489 sec)
Old exchange energy                            :    -26.466003609 Eh
New exchange energy                            :    -26.466034005 Eh
Exchange energy change after final integration :     -0.000030396 Eh
Total energy after final integration           :  -1030.778975193 Eh
             **** ENERGY FILE WAS UPDATED (Inputs/Catechin_CPCM.en.tmp) ****

----------------
TOTAL SCF ENERGY
----------------

Total Energy       :      -1030.77897519276803 Eh          -28048.92189 eV

Components:
Nuclear Repulsion  :       1636.68248031046460 Eh           44536.39448 eV
Electronic Energy  :      -2667.41864408073116 Eh          -72584.15141 eV
One Electron Energy:      -4661.42667292888564 Eh         -126843.86839 eV
Two Electron Energy:       1994.00802884815448 Eh           54259.71698 eV
CPCM Dielectric    :         -0.04278102668848 Eh              -1.16413 eV

Virial components:
Potential Energy   :      -2055.59405751615759 Eh          -55935.55801 eV
Kinetic Energy     :       1024.81508232338979 Eh           27886.63612 eV
Virial Ratio       :          2.00581948194581

DFT components:
N(Alpha)           :       76.000010465157 electrons
N(Beta)            :       76.000010465157 electrons
N(Total)           :      152.000020930313 electrons
E(X)               :     -105.197859996436 Eh       
E(C)               :       -6.208498021328 Eh       
E(XC)              :     -111.406358017764 Eh       

CPCM Solvation Model Properties:
Surface-charge          :         -0.01556042309482
Corrected charge        :         -0.00000000000000
Outlying charge corr.   :          0.00001312317830 Eh               0.00036 eV
Free-energy (cav+disp)  :  This term is not implemented in the current solvation scheme

---------------
SCF CONVERGENCE
---------------

  Last Energy change         ...    4.9999e-09  Tolerance :   1.0000e-08
  Last MAX-Density change    ...    8.8825e-06  Tolerance :   1.0000e-07
  Last RMS-Density change    ...    3.0727e-07  Tolerance :   5.0000e-09
  Last DIIS Error            ...    2.8034e-03  Tolerance :   5.0000e-07
  Last Orbital Gradient      ...    4.7037e-06  Tolerance :   1.0000e-05
  Last Orbital Rotation      ...    8.7815e-06  Tolerance :   1.0000e-05


Total SCF time: 0 days 0 hours 2 min 23 sec 
Finished LeanSCF after 144.0 sec

Maximum memory used throughout the entire LEANSCF-calculation: 92.3 MB

------------------------------------------------------------------------------
                         ORCA PROPERTY INTEGRAL CALCULATIONS
------------------------------------------------------------------------------

GBWName                                   ... Inputs/Catechin_CPCM.gbw
Number of atoms                           ...     35
Number of basis functions                 ...    322
Max core memory                           ...   4096 MB

Dipole integrals                          ... YES
Quadrupole integrals                      ...  NO
Linear momentum integrals                 ...  NO
Angular momentum integrals                ...  NO
Higher moments length integrals           ...  NO
Higher moments velocity integrals         ...  NO
Kinetic energy integrals                  ...  NO
GIAO right hand sides                     ...  NO
GIAO dipole derivative integrals          ...  NO
SOC integrals                             ...  NO
EPR diamagnetic integrals (GIAO)          ...  NO
EPR gauge integrals                       ...  NO
Field gradient integrals                  ...  NO (   0 nuclei)
Spin-dipole/Fermi contact integrals       ...  NO (   0 nuclei)
Contact density integrals                 ...  NO (   0 nuclei)
Nucleus-orbit integrals                   ...  NO (   0 nuclei)
Geometric perturbations                   ...  NO (  35 nuclei)

Choice of electric origin   ... Center of mass
Position of electric origin ... ( -0.0128, -0.0038,  0.0520) 
Choice of magnetic origin   ... GIAO
Position of magnetic origin ... (  0.0000,  0.0000,  0.0000) 

Calculating integrals                     ... Electric Dipole (Length)     done (  0.0 sec)

Property integrals calculated in   0.1 sec

Maximum memory used throughout the entire PROPINT-calculation: 25.8 MB

-------------------------   --------------------
FINAL SINGLE POINT ENERGY     -1030.778975192768
-------------------------   --------------------

------------------------------------------------------------------------------
                         ORCA SCF GRADIENT CALCULATION
------------------------------------------------------------------------------

Nuc. rep. gradient        (SHARK) ... done (  0.0 sec)
HCore & Overlap gradient  (SHARK) ... done (  0.9 sec)
Split-RIJ-J gradient      (SHARK) ... done (  4.6 sec)
COSX-gradient                     ... done ( 63.7 sec)
XC gradient                       ... done ( 17.4 sec)
CPCM gradient                     ... done (  4.9 sec)

------------------
CARTESIAN GRADIENT
------------------

   1   O   :   -0.000128621    0.000116265   -0.000034514
   2   O   :    0.000242412    0.000080394    0.000090845
   3   O   :    0.000060531    0.000038576   -0.000051649
   4   O   :   -0.000013128    0.000015144   -0.000023531
   5   O   :    0.000164020   -0.000064469   -0.000069644
   6   O   :    0.000073426   -0.000083774   -0.000133972
   7   C   :   -0.000332343   -0.000235077    0.000006109
   8   C   :    0.000208475    0.000146905   -0.000037892
   9   C   :    0.000112983    0.000107304   -0.000151287
  10   C   :   -0.000021511    0.000042324    0.000041371
  11   C   :   -0.000006986   -0.000302539   -0.000017690
  12   C   :   -0.000082129   -0.000135695   -0.000202269
  13   C   :   -0.000021978   -0.000040399    0.000006679
  14   C   :    0.000134297    0.000030853    0.000022608
  15   C   :   -0.000048443    0.000128930    0.000221253
  16   C   :    0.000169035    0.000005513    0.000152557
  17   C   :    0.000014314    0.000043420   -0.000009959
  18   C   :   -0.000089497   -0.000017011   -0.000016104
  19   C   :    0.000001860    0.000007841    0.000022839
  20   C   :   -0.000106065   -0.000022930   -0.000066030
  21   C   :   -0.000025573    0.000014535    0.000036428
  22   H   :   -0.000050594   -0.000014259   -0.000012067
  23   H   :    0.000012610    0.000035138    0.000001907
  24   H   :   -0.000058653   -0.000003379    0.000001119
  25   H   :    0.000044703    0.000012462    0.000010336
  26   H   :    0.000001997    0.000005314    0.000001651
  27   H   :   -0.000015380    0.000010187   -0.000005482
  28   H   :   -0.000067836    0.000022461    0.000038144
  29   H   :   -0.000000948    0.000003865   -0.000003041
  30   H   :   -0.000001847   -0.000046445   -0.000007781
  31   H   :   -0.000072969    0.000040147    0.000065813
  32   H   :   -0.000013395   -0.000004121    0.000021492
  33   H   :    0.000015480    0.000002638    0.000009874
  34   H   :   -0.000058177    0.000022617    0.000034447
  35   H   :   -0.000040071    0.000037265    0.000057440

Difference to translation invariance:
           :   -0.0000000001    0.0000000000    0.0000000000

Difference to rotation invariance:
           :    0.0000872288    0.0013717443   -0.0001940869

Norm of the Cartesian gradient     ...    0.0009138361
RMS gradient                       ...    0.0000891813
MAX gradient                       ...    0.0003323432

-------
TIMINGS
-------

Total SCF gradient time     ....       91.515 sec

Densities                   ....       0.002 sec  (  0.0%)
One electron gradient       ....       0.928 sec  (  1.0%)
RI-J Coulomb gradient       ....       4.609 sec  (  5.0%)
COSX gradient               ....      63.655 sec  ( 69.6%)
XC gradient                 ....      17.353 sec  ( 19.0%)
CPCM gradient               ....       4.931 sec  (  5.4%)
   A-Matrix (El+Nuc)        ....       0.171 sec  (  0.2%)
   Potential                ....       4.760 sec  (  5.2%)

Maximum memory used throughout the entire SCFGRAD-calculation: 56.8 MB
------------------------------------------------------------------------------
                         ORCA GEOMETRY RELAXATION STEP
------------------------------------------------------------------------------

Reading the OPT-File                    .... done
Getting information on internals        .... done
Copying old internal coords+grads       .... done
Making the new internal coordinates     .... (2022 redundants) done
Validating the new internal coordinates .... (2022 redundants) done
Calculating the B-matrix                .... done
Calculating the G,G- and P matrices     .... done
Transforming gradient to internals      .... done
Projecting the internal gradient        .... done
Number of atoms                         ....  35
Number of internal coordinates          .... 183
Current Energy                          .... -1030.778975193 Eh
Current gradient norm                   ....     0.000913836 Eh/bohr
Maximum allowed component of the step   ....  0.300
Current trust radius                    ....  0.450
Updating the Hessian (BFGS)             .... done
Forming the augmented Hessian           .... done
Diagonalizing the augmented Hessian     .... done
Last element of RFO vector              ....  0.999887915
Lowest eigenvalues of augmented Hessian:
 -0.000003096  0.002923325  0.010530876  0.014446153  0.018872463
Length of the computed step             ....  0.014973585
The final length of the internal step   ....  0.014973585
Converting the step to Cartesian space:
 Initial RMS(Int)=    0.0011068793
Transforming coordinates:
 Iter   0:  RMS(Cart)=    0.0029641368 RMS(Int)=    0.0011067505
done
Storing new coordinates                 .... done
The predicted energy change is          ....    -0.000001549
Previously predicted energy change      ....    -0.000004854
Actually observed energy change         ....    -0.000009792
Ratio of predicted to observed change   ....     2.017279713
New trust radius                        ....     0.300000000

                                .--------------------.
          ----------------------|Geometry convergence|-------------------------
          Item                value                   Tolerance       Converged
          ---------------------------------------------------------------------
          Energy change      -0.0000097916            0.0000050000      NO
          RMS gradient        0.0000484212            0.0001000000      YES
          MAX gradient        0.0002111225            0.0003000000      YES
          RMS step            0.0011068793            0.0020000000      YES
          MAX step            0.0079538422            0.0040000000      NO
          -------------------------------------------------------------------------
          ........................................................
          Max(Bonds)      0.0003      Max(Angles)    0.05
          Max(Dihed)        0.46      Max(Improp)    0.00
          ---------------------------------------------------------------------

The optimization has not yet converged - more geometry cycles are needed


    ---------------------------------------------------------------------------
                         Redundant Internal Coordinates
                            (Angstroem and degrees)

        Definition                    Value    dE/dq     Step     New-Value
    ----------------------------------------------------------------------------
     1. B(C   6,O   1)                1.4229 -0.000211  0.0003    1.4232   
     2. B(C   7,O   0)                1.4461 -0.000032 -0.0001    1.4461   
     3. B(C   7,C   6)                1.5387  0.000083 -0.0002    1.5385   
     4. B(C   8,C   6)                1.5317  0.000100 -0.0001    1.5316   
     5. B(C   9,C   8)                1.5107 -0.000102  0.0002    1.5110   
     6. B(C  10,C   9)                1.4001 -0.000101  0.0001    1.4002   
     7. B(C  10,O   0)                1.3721  0.000080 -0.0001    1.3721   
     8. B(C  11,C   7)                1.5104  0.000032  0.0001    1.5104   
     9. B(C  12,C   9)                1.4074  0.000027 -0.0001    1.4073   
    10. B(C  12,O   2)                1.3677 -0.000014 -0.0000    1.3677   
    11. B(C  13,C  10)                1.4019  0.000085 -0.0001    1.4018   
    12. B(C  14,C  11)                1.4049  0.000172 -0.0003    1.4046   
    13. B(C  15,C  11)                1.3954 -0.000095  0.0001    1.3956   
    14. B(C  16,C  12)                1.3958 -0.000021  0.0001    1.3959   
    15. B(C  17,O   3)                1.3673  0.000016  0.0000    1.3673   
    16. B(C  17,C  16)                1.4008 -0.000018 -0.0000    1.4008   
    17. B(C  17,C  13)                1.3950 -0.000082  0.0001    1.3952   
    18. B(C  18,C  14)                1.3928 -0.000067  0.0002    1.3930   
    19. B(C  18,O   4)                1.3684 -0.000096  0.0002    1.3685   
    20. B(C  19,C  15)                1.3994  0.000108 -0.0002    1.3993   
    21. B(C  20,C  19)                1.3940 -0.000066  0.0002    1.3942   
    22. B(C  20,C  18)                1.4120  0.000049 -0.0003    1.4117   
    23. B(C  20,O   5)                1.3674 -0.000058  0.0002    1.3675   
    24. B(H  21,C   6)                1.1013 -0.000008  0.0000    1.1013   
    25. B(H  22,C   7)                1.0991 -0.000007  0.0000    1.0991   
    26. B(H  23,C   8)                1.1000 -0.000006  0.0000    1.1000   
    27. B(H  24,C   8)                1.0974  0.000017 -0.0000    1.0973   
    28. B(H  25,C  13)                1.0863  0.000004  0.0000    1.0863   
    29. B(H  26,C  14)                1.0879 -0.000015  0.0000    1.0879   
    30. B(H  27,O   1)                0.9721 -0.000018  0.0000    0.9721   
    31. B(H  28,C  15)                1.0867  0.000006 -0.0000    1.0867   
    32. B(H  29,C  16)                1.0865 -0.000001  0.0000    1.0865   
    33. B(H  30,C  19)                1.0881 -0.000007  0.0000    1.0881   
    34. B(H  31,O   2)                0.9727 -0.000010  0.0000    0.9727   
    35. B(H  32,O   3)                0.9726 -0.000007  0.0000    0.9726   
    36. B(H  33,O   4)                0.9725 -0.000024  0.0000    0.9726   
    37. B(H  34,O   5)                0.9728 -0.000027  0.0000    0.9729   
    38. A(C   7,O   0,C  10)          117.79 -0.000123    0.03    117.82   
    39. A(C   6,O   1,H  27)          107.29  0.000036   -0.02    107.27   
    40. A(C  12,O   2,H  31)          109.23  0.000005   -0.01    109.22   
    41. A(C  17,O   3,H  32)          109.31  0.000027   -0.01    109.30   
    42. A(C  18,O   4,H  33)          108.89  0.000126   -0.03    108.87   
    43. A(C  20,O   5,H  34)          108.87  0.000119   -0.03    108.84   
    44. A(O   1,C   6,C   8)          111.72 -0.000050    0.02    111.74   
    45. A(C   8,C   6,H  21)          109.88  0.000097   -0.03    109.85   
    46. A(C   7,C   6,C   8)          109.38 -0.000107    0.05    109.43   
    47. A(O   1,C   6,C   7)          107.36  0.000147   -0.04    107.32   
    48. A(C   7,C   6,H  21)          107.78 -0.000026    0.01    107.79   
    49. A(O   1,C   6,H  21)          110.60 -0.000061    0.00    110.60   
    50. A(C   6,C   7,C  11)          114.12 -0.000126    0.01    114.13   
    51. A(C  11,C   7,H  22)          109.32  0.000028   -0.01    109.31   
    52. A(C   6,C   7,H  22)          108.07  0.000034    0.01    108.08   
    53. A(O   0,C   7,C  11)          107.49  0.000041   -0.01    107.49   
    54. A(O   0,C   7,H  22)          108.54 -0.000034    0.01    108.55   
    55. A(O   0,C   7,C   6)          109.17  0.000058   -0.00    109.17   
    56. A(C   6,C   8,C   9)          110.97  0.000057   -0.00    110.97   
    57. A(C   9,C   8,H  24)          110.41 -0.000069    0.02    110.43   
    58. A(C   6,C   8,H  24)          109.77  0.000021   -0.01    109.76   
    59. A(C   9,C   8,H  23)          111.18  0.000029   -0.03    111.15   
    60. A(C   6,C   8,H  23)          107.90 -0.000056    0.03    107.93   
    61. A(H  23,C   8,H  24)          106.48  0.000017   -0.00    106.47   
    62. A(C   8,C   9,C  10)          120.91 -0.000027    0.00    120.91   
    63. A(C  10,C   9,C  12)          117.15  0.000021    0.01    117.16   
    64. A(C   8,C   9,C  12)          121.93  0.000006   -0.01    121.93   
    65. A(C   9,C  10,C  13)          122.18 -0.000046    0.00    122.19   
    66. A(O   0,C  10,C  13)          115.62 -0.000054    0.01    115.63   
    67. A(O   0,C  10,C   9)          122.19  0.000100   -0.01    122.17   
    68. A(C  14,C  11,C  15)          118.94  0.000015   -0.00    118.93   
    69. A(C   7,C  11,C  15)          120.49 -0.000020   -0.00    120.48   
    70. A(C   7,C  11,C  14)          120.57  0.000004    0.01    120.57   
    71. A(O   2,C  12,C   9)          116.31  0.000069   -0.00    116.30   
    72. A(C   9,C  12,C  16)          122.06  0.000003   -0.01    122.06   
    73. A(O   2,C  12,C  16)          121.63 -0.000072    0.01    121.64   
    74. A(C  17,C  13,H  25)          121.40 -0.000023    0.00    121.40   
    75. A(C  10,C  13,H  25)          119.71 -0.000013   -0.00    119.71   
    76. A(C  10,C  13,C  17)          118.89  0.000036   -0.00    118.89   
    77. A(C  11,C  14,C  18)          121.03 -0.000063    0.01    121.03   
    78. A(C  11,C  14,H  26)          120.16  0.000045   -0.02    120.14   
    79. A(C  18,C  14,H  26)          118.81  0.000018    0.01    118.82   
    80. A(C  11,C  15,C  19)          120.42  0.000026   -0.00    120.41   
    81. A(C  19,C  15,H  28)          119.53 -0.000012    0.00    119.53   
    82. A(C  11,C  15,H  28)          120.06 -0.000013    0.00    120.06   
    83. A(C  17,C  16,H  29)          120.07  0.000051   -0.02    120.06   
    84. A(C  12,C  16,H  29)          120.94 -0.000042    0.01    120.96   
    85. A(C  12,C  16,C  17)          118.98 -0.000009    0.00    118.99   
    86. A(C  13,C  17,C  16)          120.72 -0.000005   -0.00    120.72   
    87. A(O   3,C  17,C  16)          116.94  0.000002    0.01    116.95   
    88. A(O   3,C  17,C  13)          122.33  0.000003   -0.01    122.33   
    89. A(C  14,C  18,C  20)          119.69  0.000034   -0.00    119.69   
    90. A(O   4,C  18,C  20)          116.91  0.000007    0.01    116.93   
    91. A(O   4,C  18,C  14)          123.40 -0.000041   -0.01    123.38   
    92. A(C  20,C  19,H  30)          118.96 -0.000078    0.03    118.99   
    93. A(C  15,C  19,H  30)          120.40  0.000124   -0.04    120.36   
    94. A(C  15,C  19,C  20)          120.64 -0.000046    0.00    120.65   
    95. A(O   5,C  20,C  18)          117.11  0.000051    0.00    117.12   
    96. A(C  18,C  20,C  19)          119.28  0.000033   -0.00    119.28   
    97. A(O   5,C  20,C  19)          123.61 -0.000084    0.00    123.61   
    98. D(C   8,C   6,O   1,H  27)     57.88  0.000083   -0.46     57.43   
    99. D(H  21,C   6,O   1,H  27)    -64.86  0.000037   -0.43    -65.29   
   100. D(C   7,C   6,O   1,H  27)    177.80  0.000015   -0.41    177.39   
   101. D(O   0,C   7,C   6,O   1)    176.46 -0.000002    0.04    176.50   
   102. D(C  11,C   7,O   0,C  10)    171.47 -0.000043   -0.00    171.47   
   103. D(H  22,C   7,O   0,C  10)    -70.39 -0.000005   -0.02    -70.41   
   104. D(C  11,C   7,C   6,O   1)     56.17 -0.000013    0.05     56.22   
   105. D(O   0,C   7,C   6,C   8)    -62.14 -0.000036    0.07    -62.07   
   106. D(C  11,C   7,C   6,H  21)    -63.00 -0.000007    0.06    -62.93   
   107. D(C  11,C   7,C   6,C   8)    177.57 -0.000047    0.07    177.64   
   108. D(C   6,C   7,O   0,C  10)     47.19  0.000049   -0.01     47.19   
   109. D(O   0,C   7,C   6,H  21)     57.29  0.000004    0.06     57.35   
   110. D(C   9,C   8,C   6,H  21)    -72.14  0.000022   -0.08    -72.22   
   111. D(C   9,C   8,C   6,O   1)    164.71  0.000066   -0.07    164.63   
   112. D(C   9,C   8,C   6,C   7)     45.98 -0.000016   -0.06     45.92   
   113. D(H  23,C   8,C   6,O   1)     42.68  0.000031   -0.05     42.63   
   114. D(H  23,C   8,C   6,C   7)    -76.05 -0.000051   -0.04    -76.09   
   115. D(H  23,C   8,C   6,H  21)    165.83 -0.000013   -0.06    165.77   
   116. D(C  12,C   9,C   8,C   6)    163.04 -0.000010    0.06    163.10   
   117. D(C  10,C   9,C   8,H  23)    104.14 -0.000016    0.04    104.18   
   118. D(C  10,C   9,C   8,H  24)   -137.91 -0.000021    0.03   -137.88   
   119. D(C  12,C   9,C   8,H  23)    -76.86 -0.000023    0.07    -76.79   
   120. D(C  10,C   9,C   8,C   6)    -15.96 -0.000003    0.02    -15.93   
   121. D(C  13,C  10,C   9,C  12)     -0.89 -0.000012    0.02     -0.86   
   122. D(C  13,C  10,C   9,C   8)    178.15 -0.000019    0.06    178.21   
   123. D(O   0,C  10,C   9,C  12)   -179.69 -0.000012    0.01   -179.67   
   124. D(O   0,C  10,C   9,C   8)     -0.65 -0.000019    0.05     -0.60   
   125. D(C  13,C  10,O   0,C   7)    165.10  0.000007   -0.07    165.03   
   126. D(C   9,C  10,O   0,C   7)    -16.03  0.000007   -0.06    -16.09   
   127. D(C  14,C  11,C   7,C   6)     71.11  0.000034   -0.08     71.03   
   128. D(C  14,C  11,C   7,O   0)    -50.11  0.000011   -0.08    -50.19   
   129. D(C  15,C  11,C   7,C   6)   -107.57  0.000043   -0.12   -107.68   
   130. D(C  15,C  11,C   7,O   0)    131.21  0.000020   -0.11    131.10   
   131. D(C  14,C  11,C   7,H  22)   -167.74  0.000013   -0.08   -167.82   
   132. D(C  16,C  12,C   9,C  10)      0.82  0.000008   -0.02      0.80   
   133. D(C  16,C  12,C   9,C   8)   -178.21  0.000016   -0.05   -178.26   
   134. D(O   2,C  12,C   9,C  10)   -179.43  0.000006   -0.02   -179.45   
   135. D(O   2,C  12,C   9,C   8)      1.54  0.000013   -0.05      1.49   
   136. D(C  16,C  12,O   2,H  31)      1.80  0.000027   -0.08      1.72   
   137. D(C   9,C  12,O   2,H  31)   -177.95  0.000029   -0.08   -178.03   
   138. D(H  25,C  13,C  10,C   9)   -179.93  0.000005   -0.01   -179.94   
   139. D(C  17,C  13,C  10,O   0)    179.12  0.000010   -0.01    179.12   
   140. D(C  17,C  13,C  10,C   9)      0.25  0.000008   -0.02      0.24   
   141. D(H  25,C  13,C  10,O   0)     -1.06  0.000007   -0.01     -1.06   
   142. D(H  26,C  14,C  11,C  15)   -179.11  0.000003   -0.01   -179.12   
   143. D(H  26,C  14,C  11,C   7)      2.19  0.000012   -0.04      2.15   
   144. D(C  18,C  14,C  11,C  15)      0.14  0.000002    0.00      0.14   
   145. D(C  18,C  14,C  11,C   7)   -178.56  0.000011   -0.03   -178.59   
   146. D(H  28,C  15,C  11,C  14)    179.61 -0.000001    0.00    179.61   
   147. D(H  28,C  15,C  11,C   7)     -1.69 -0.000010    0.03     -1.66   
   148. D(C  19,C  15,C  11,C  14)     -0.52 -0.000002    0.00     -0.52   
   149. D(C  19,C  15,C  11,C   7)    178.18 -0.000011    0.03    178.21   
   150. D(H  29,C  16,C  12,C   9)    179.77 -0.000002    0.00    179.77   
   151. D(H  29,C  16,C  12,O   2)      0.04 -0.000000    0.00      0.04   
   152. D(C  17,C  16,C  12,C   9)     -0.11 -0.000000    0.00     -0.11   
   153. D(C  17,C  16,C  12,O   2)   -179.85  0.000002   -0.00   -179.85   
   154. D(C  16,C  17,C  13,H  25)   -179.32  0.000003   -0.00   -179.32   
   155. D(C  16,C  17,C  13,C  10)      0.50  0.000000   -0.00      0.50   
   156. D(O   3,C  17,C  13,H  25)      0.24  0.000002   -0.01      0.23   
   157. D(O   3,C  17,C  13,C  10)   -179.95  0.000000   -0.00   -179.95   
   158. D(C  16,C  17,O   3,H  32)   -179.71  0.000012   -0.02   -179.73   
   159. D(O   3,C  17,C  16,C  12)    179.86 -0.000004    0.01    179.87   
   160. D(C  13,C  17,O   3,H  32)      0.72  0.000012   -0.02      0.70   
   161. D(C  13,C  17,C  16,H  29)    179.55 -0.000002    0.01    179.56   
   162. D(C  13,C  17,C  16,C  12)     -0.56 -0.000004    0.01     -0.56   
   163. D(O   3,C  17,C  16,H  29)     -0.03 -0.000001    0.01     -0.02   
   164. D(C  20,C  18,C  14,H  26)    179.59 -0.000002   -0.00    179.59   
   165. D(C  20,C  18,C  14,C  11)      0.33 -0.000001   -0.01      0.32   
   166. D(O   4,C  18,C  14,H  26)     -0.37 -0.000002   -0.00     -0.38   
   167. D(O   4,C  18,C  14,C  11)   -179.63 -0.000001   -0.01   -179.64   
   168. D(C  20,C  18,O   4,H  33)   -179.22 -0.000001    0.05   -179.17   
   169. D(C  14,C  18,O   4,H  33)      0.74 -0.000000    0.05      0.80   
   170. D(H  30,C  19,C  15,H  28)     -0.12 -0.000001   -0.00     -0.12   
   171. D(H  30,C  19,C  15,C  11)   -179.99 -0.000001   -0.00   -179.99   
   172. D(C  20,C  19,C  15,H  28)   -179.69 -0.000000    0.00   -179.69   
   173. D(C  20,C  19,C  15,C  11)      0.44  0.000000    0.00      0.45   
   174. D(C  18,C  20,C  19,H  30)   -179.54  0.000001   -0.01   -179.55   
   175. D(C  18,C  20,C  19,C  15)      0.03  0.000001   -0.01      0.02   
   176. D(O   5,C  20,C  19,H  30)      0.14 -0.000001   -0.00      0.14   
   177. D(O   5,C  20,C  19,C  15)    179.72 -0.000001   -0.00    179.71   
   178. D(C  19,C  20,C  18,C  14)     -0.41 -0.000001    0.01     -0.40   
   179. D(C  19,C  20,C  18,O   4)    179.55 -0.000000    0.01    179.57   
   180. D(O   5,C  20,C  18,C  14)    179.88  0.000002    0.01    179.89   
   181. D(O   5,C  20,C  18,O   4)     -0.15  0.000002    0.01     -0.14   
   182. D(C  19,C  20,O   5,H  34)      0.19 -0.000005    0.02      0.21   
   183. D(C  18,C  20,O   5,H  34)    179.88 -0.000007    0.02    179.91   
    ----------------------------------------------------------------------------

Geometry step timings:
Preparation and reading OPT file:      0.004 s ( 3.718 %)
Internal coordinates            :      0.002 s ( 1.440 %)
B/P matrices and projection     :      0.006 s ( 5.726 %)
Hessian update/contruction      :      0.023 s (20.476 %)
Making the step                 :      0.005 s ( 4.657 %)
Converting the step to Cartesian:      0.001 s ( 0.947 %)
Storing new data                :      0.004 s ( 3.490 %)
Checking convergence            :      0.003 s ( 2.862 %)
Final printing                  :      0.062 s (56.682 %)
Total time                      :      0.110 s

Time for energy+gradient        :    243.948 s
Time for complete geometry iter :    244.661 s

         *************************************************************
         *                GEOMETRY OPTIMIZATION CYCLE   9            *
         *************************************************************
---------------------------------
CARTESIAN COORDINATES (ANGSTROEM)
---------------------------------
  O      0.428486    0.650687   -0.238042
  O     -0.720768   -2.811659   -0.022949
  O      4.391703   -1.978033    0.267233
  O      4.681406    2.781801    0.078051
  O     -4.161998    1.342388    1.960241
  O     -5.852625    0.745314    0.002467
  C      0.108918   -1.700801    0.298090
  C     -0.335307   -0.525670   -0.590018
  C      1.587836   -2.003957    0.039858
  C      2.405069   -0.733225    0.020756
  C      1.788000    0.516827   -0.109973
  C     -1.798152   -0.172449   -0.460635
  C      3.806130   -0.747339    0.152402
  C      2.516388    1.714384   -0.093996
  C     -2.285086    0.438299    0.706768
  C     -2.692523   -0.472384   -1.489092
  C      4.560413    0.427021    0.170783
  C      3.902738    1.658189    0.052197
  C     -3.637279    0.741798    0.848092
  C     -4.053707   -0.178322   -1.352337
  C     -4.537232    0.426351   -0.192818
  H     -0.033582   -1.401389    1.348286
  H     -0.115230   -0.785636   -1.635058
  H      1.661628   -2.537652   -0.919165
  H      1.965354   -2.690698    0.807981
  H      1.996098    2.662324   -0.197747
  H     -1.603036    0.693779    1.514897
  H     -0.412422   -3.565224    0.508202
  H     -2.334620   -0.939183   -2.402863
  H      5.641286    0.395454    0.276942
  H     -4.750264   -0.412731   -2.154762
  H      5.350989   -1.866588    0.383203
  H      4.114693    3.567590   -0.007578
  H     -3.443284    1.517915    2.591509
  H     -6.360519    0.478818   -0.783326

----------------------------
CARTESIAN COORDINATES (A.U.)
----------------------------
  NO LB      ZA    FRAG     MASS         X           Y           Z
   0 O     8.0000    0    15.999    0.809721    1.229619   -0.449834
   1 O     8.0000    0    15.999   -1.362055   -5.313266   -0.043368
   2 O     8.0000    0    15.999    8.299115   -3.737940    0.504998
   3 O     8.0000    0    15.999    8.846576    5.256842    0.147496
   4 O     8.0000    0    15.999   -7.865036    2.536745    3.704318
   5 O     8.0000    0    15.999  -11.059858    1.408440    0.004662
   6 C     6.0000    0    12.011    0.205826   -3.214047    0.563309
   7 C     6.0000    0    12.011   -0.633638   -0.993372   -1.114972
   8 C     6.0000    0    12.011    3.000574   -3.786930    0.075321
   9 C     6.0000    0    12.011    4.544921   -1.385595    0.039223
  10 C     6.0000    0    12.011    3.378831    0.976662   -0.207818
  11 C     6.0000    0    12.011   -3.398015   -0.325881   -0.870473
  12 C     6.0000    0    12.011    7.192542   -1.412267    0.287998
  13 C     6.0000    0    12.011    4.755284    3.239717   -0.177627
  14 C     6.0000    0    12.011   -4.318186    0.828266    1.335598
  15 C     6.0000    0    12.011   -5.088132   -0.892677   -2.813976
  16 C     6.0000    0    12.011    8.617932    0.806953    0.322732
  17 C     6.0000    0    12.011    7.375105    3.133523    0.098638
  18 C     6.0000    0    12.011   -6.873461    1.401796    1.602661
  19 C     6.0000    0    12.011   -7.660395   -0.336979   -2.555546
  20 C     6.0000    0    12.011   -8.574125    0.805687   -0.364374
  21 H     1.0000    0     1.008   -0.063461   -2.648241    2.547891
  22 H     1.0000    0     1.008   -0.217753   -1.484637   -3.089812
  23 H     1.0000    0     1.008    3.140021   -4.795468   -1.736971
  24 H     1.0000    0     1.008    3.713981   -5.084682    1.526863
  25 H     1.0000    0     1.008    3.772079    5.031064   -0.373688
  26 H     1.0000    0     1.008   -3.029300    1.311053    2.862741
  27 H     1.0000    0     1.008   -0.779364   -6.737297    0.960363
  28 H     1.0000    0     1.008   -4.411792   -1.774799   -4.540753
  29 H     1.0000    0     1.008   10.660486    0.747299    0.523345
  30 H     1.0000    0     1.008   -8.976699   -0.779948   -4.071910
  31 H     1.0000    0     1.008   10.111904   -3.527339    0.724148
  32 H     1.0000    0     1.008    7.775643    6.741767   -0.014320
  33 H     1.0000    0     1.008   -6.506864    2.868443    4.897242
  34 H     1.0000    0     1.008  -12.019639    0.904835   -1.480271

--------------------------------
INTERNAL COORDINATES (ANGSTROEM)
--------------------------------
 O      0   0   0     0.000000000000     0.00000000     0.00000000
 O      1   0   0     3.654433831048     0.00000000     0.00000000
 O      1   2   0     4.782526043398    74.55158682     0.00000000
 O      1   2   3     4.767483360854   134.43913669   356.68984251
 O      1   2   3     5.136480950873    79.70845715   210.51744458
 O      5   1   2     2.654730751122   102.89924924   290.13017470
 C      2   1   3     1.423184034116    24.55316965    36.92288779
 C      1   2   3     1.446056699656    22.70374114   134.77264417
 C      7   2   1     1.531595198867   111.74013430   236.88917048
 C      9   7   2     1.510958065030   110.97335833   164.63523938
 C      1   2   3     1.372078777515   102.33791747   359.13028020
 C      8   1   2     1.510437926275   107.48518615   120.91320091
 C      3   1   2     1.367730931816    30.88056055   182.59039447
 C     11   1   2     1.401765808172   115.63139192   182.79714795
 C     12   8   1     1.404616273792   120.57191156   309.80599949
 C     12   8   1     1.395559325885   120.48345849   131.09629253
 C     13   3   1     1.395852512921   121.63915765   179.89962483
 C      4   1   2     1.367295819333    28.76208532     3.81329936
 C      5   1   2     1.368543986385    41.44861600   305.83338099
 C     16  12   8     1.399283548947   120.41299170   178.21124094
 C      6   5   1     1.367528110631    62.94870832    11.52208902
 H      7   2   1     1.101300932895   110.60261956   114.17730031
 H      8   1   2     1.099147834465   108.54620272   239.03599099
 H      9   7   2     1.100000710408   107.92699718    42.62612149
 H      9   7   2     1.097335663047   109.75821392   286.97562839
 H     14  11   1     1.086303656782   119.70545245   358.93940190
 H     15  12   8     1.087903407257   120.14254513     2.15195680
 H      2   1   3     0.972141953802   131.82247788    37.61045726
 H     16  12   8     1.086726311022   120.06064829   358.34249718
 H     17  13   3     1.086532500213   120.95757287     0.03985410
 H     20  16  12     1.088129968821   120.35584601   180.00981041
 H      3   1   2     0.972676582958   140.07622236   185.26846805
 H      4   1   2     0.972604598721    80.53329150   184.00300475
 H      5   1   2     0.972552650830    69.00123985   109.13951419
 H      6   5   1     0.972855148016   171.78732165    10.41612974

---------------------------
INTERNAL COORDINATES (A.U.)
---------------------------
 O      0   0   0     0.000000000000     0.00000000     0.00000000
 O      1   0   0     6.905879115216     0.00000000     0.00000000
 O      1   2   0     9.037664450369    74.55158682     0.00000000
 O      1   2   3     9.009237900041   134.43913669   356.68984251
 O      1   2   3     9.706542289254    79.70845715   210.51744458
 O      5   1   2     5.016714078920   102.89924924   290.13017470
 C      2   1   3     2.689428062648    24.55316965    36.92288779
 C      1   2   3     2.732651136472    22.70374114   134.77264417
 C      7   2   1     2.894295473887   111.74013430   236.88917048
 C      9   7   2     2.855296942746   110.97335833   164.63523938
 C      1   2   3     2.592853123669   102.33791747   359.13028020
 C      8   1   2     2.854314022947   107.48518615   120.91320091
 C      3   1   2     2.584636886025    30.88056055   182.59039447
 C     11   1   2     2.648953481339   115.63139192   182.79714795
 C     12   8   1     2.654340080716   120.57191156   309.80599949
 C     12   8   1     2.637224929562   120.48345849   131.09629253
 C     13   3   1     2.637778972766   121.63915765   179.89962483
 C      4   1   2     2.583814642595    28.76208532     3.81329936
 C      5   1   2     2.586173336493    41.44861600   305.83338099
 C     16  12   8     2.644262691211   120.41299170   178.21124094
 C      6   5   1     2.584253609531    62.94870832    11.52208902
 H      7   2   1     2.081157154204   110.60261956   114.17730031
 H      8   1   2     2.077088387831   108.54620272   239.03599099
 H      9   7   2     2.078700089790   107.92699718    42.62612149
 H      9   7   2     2.073663880144   109.75821392   286.97562839
 H     14  11   1     2.052816409595   119.70545245   358.93940190
 H     15  12   8     2.055839499875   120.14254513     2.15195680
 H      2   1   3     1.837082055982   131.82247788    37.61045726
 H     16  12   8     2.053615110358   120.06064829   358.34249718
 H     17  13   3     2.053248861008   120.95757287     0.03985410
 H     20  16  12     2.056267639184   120.35584601   180.00981041
 H      3   1   2     1.838092358669   140.07622236   185.26846805
 H      4   1   2     1.837956328175    80.53329150   184.00300475
 H      5   1   2     1.837858160889    69.00123985   109.13951419
 H      6   5   1     1.838429797726   171.78732165    10.41612974

------------------------------------------------------------------------------
                   ___                                                        
                  /   \      - P O W E R E D   B Y -                         
                 /     \                                                     
                 |  |  |   _    _      __       _____    __    __             
                 |  |  |  | |  | |    /  \     |  _  \  |  |  /  |          
                  \  \/   | |  | |   /    \    | | | |  |  | /  /          
                 / \  \   | |__| |  /  /\  \   | |_| |  |  |/  /          
                |  |  |   |  __  | /  /__\  \  |    /   |      \           
                |  |  |   | |  | | |   __   |  |    \   |  |\   \          
                \     /   | |  | | |  |  |  |  | |\  \  |  | \   \       
                 \___/    |_|  |_| |__|  |__|  |_| \__\ |__|  \__/        
                                                                              
                      - O R C A' S   B I G   F R I E N D -                    
                                      &                                       
                       - I N T E G R A L  F E E D E R -                       
                                                                              
 v1 FN, 2020, v2 2021, v3 2022-2024                                           
------------------------------------------------------------------------------


----------------------
SHARK INTEGRAL PACKAGE
----------------------

Number of atoms                             ...     35
Number of basis functions                   ...    322
Number of shells                            ...    154
Maximum angular momentum                    ...      2
Integral batch strategy                     ... SHARK/LIBINT Hybrid
RI-J (if used) integral strategy            ... SPLIT-RIJ (Revised 2003 algorithm where possible)
Printlevel                                  ...      1
Contraction scheme used                     ... SEGMENTED contraction
Prescreening option                         ... SCHWARTZ
   Thresh                                   ... 2.500e-11
   Tcut                                     ... 2.500e-12
   Tpresel                                  ... 2.500e-12 
Coulomb Range Separation                    ... NOT USED
Exchange Range Separation                   ... NOT USED
Multipole approximations                    ... NOT USED
Finite Nucleus Model                        ... NOT USED
CABS basis                                  ... NOT available
Auxiliary Coulomb fitting basis             ... AVAILABLE
   # of basis functions in Aux-J            ...   1183
   # of shells in Aux-J                     ...    385
   Maximum angular momentum in Aux-J        ...      4
Auxiliary J/K fitting basis                 ... NOT available
Auxiliary Correlation fitting basis         ... NOT available
Auxiliary 'external' fitting basis          ... NOT available

Checking pre-screening integrals            ... done (  0.0 sec) Dimension = 154
   => SHARK Basis and OBASIS are compatible. Storing Pre-screening
Shell pair information
Shell pair cut-off parameter TPreSel        ...   2.5e-12
Total number of shell pairs                 ...     11935
Shell pairs after pre-screening             ...      8446
Total number of primitive shell pairs       ...     69489
Primitive shell pairs kept                  ...     27526
          la=0 lb=0:   2814 shell pairs
          la=1 lb=0:   2888 shell pairs
          la=1 lb=1:    743 shell pairs
          la=2 lb=0:   1208 shell pairs
          la=2 lb=1:    650 shell pairs
          la=2 lb=2:    143 shell pairs

Checking whether 4 symmetric matrices of dimension 322 fit in memory
:Max Core in MB      =   4096.00
 MB in use           =     15.93
 MB left             =   4080.07
 MB needed           =      1.59
 Data fit in memory  = YES
Calculating RI/J V-Matrix + Cholesky decomp.... done (  0.3 sec)
Calculating Nuclear repulsion               ... done (  0.0 sec) ENN=   1636.659389864812 Eh

Diagonalization of the overlap matrix:
Smallest eigenvalue                        ... 4.024e-04
Time for diagonalization                   ...    0.009 sec
Threshold for overlap eigenvalues          ... 1.000e-07
Number of eigenvalues below threshold      ... 0
Time for construction of square roots      ...    0.018 sec
Total time needed                          ...    0.046 sec

-------------------
DFT GRID GENERATION
-------------------

General Integration Accuracy     IntAcc      ... 4.388
Radial Grid Type                 RadialGrid  ... OptM3 with GC (2021)
Angular Grid (max. ang.)         AngularGrid ... 4 (Lebedev-302)
Angular grid pruning method      GridPruning ... 4 (adaptive)
Weight generation scheme         WeightScheme... mBecke (2022)
Basis function cutoff            BFCut       ... 1.0000e-11
Integration weight cutoff        WCut        ... 1.0000e-14
Partially contracted basis set               ... off
Rotationally invariant grid construction     ... off
Angular grids for H and He will be reduced by one unit

Total number of grid points                  ...   170398
Total number of batches                      ...     2680
Average number of points per batch           ...       63
Average number of grid points per atom       ...     4869

--------------------
COSX GRID GENERATION
--------------------

GRIDX 1
-------
General Integration Accuracy     IntAcc      ... 3.816
Radial Grid Type                 RadialGrid  ... OptM3 with GC (2021)
Angular Grid (max. ang.)         AngularGrid ... 1 (Lebedev-50)
Angular grid pruning method      GridPruning ... 4 (adaptive)
Weight generation scheme         WeightScheme... mBecke (2022)
Basis function cutoff            BFCut       ... 1.0000e-11
Integration weight cutoff        WCut        ... 1.0000e-14
Partially contracted basis set               ... on
Rotationally invariant grid construction     ... off
Angular grids for H and He will be reduced by one unit

Total number of grid points                  ...    21681
Total number of batches                      ...      191
Average number of points per batch           ...      113
Average number of grid points per atom       ...      619
UseSFitting                                  ... on

GRIDX 2
-------
General Integration Accuracy     IntAcc      ... 4.020
Radial Grid Type                 RadialGrid  ... OptM3 with GC (2021)
Angular Grid (max. ang.)         AngularGrid ... 2 (Lebedev-110)
Angular grid pruning method      GridPruning ... 4 (adaptive)
Weight generation scheme         WeightScheme... mBecke (2022)
Basis function cutoff            BFCut       ... 1.0000e-11
Integration weight cutoff        WCut        ... 1.0000e-14
Partially contracted basis set               ... on
Rotationally invariant grid construction     ... off
Angular grids for H and He will be reduced by one unit

Total number of grid points                  ...    47472
Total number of batches                      ...      389
Average number of points per batch           ...      122
Average number of grid points per atom       ...     1356
UseSFitting                                  ... on

GRIDX 3
-------
General Integration Accuracy     IntAcc      ... 4.338
Radial Grid Type                 RadialGrid  ... OptM3 with GC (2021)
Angular Grid (max. ang.)         AngularGrid ... 3 (Lebedev-194)
Angular grid pruning method      GridPruning ... 4 (adaptive)
Weight generation scheme         WeightScheme... mBecke (2022)
Basis function cutoff            BFCut       ... 1.0000e-11
Integration weight cutoff        WCut        ... 1.0000e-14
Partially contracted basis set               ... on
Rotationally invariant grid construction     ... off
Angular grids for H and He will be reduced by one unit

Total number of grid points                  ...   104084
Total number of batches                      ...      832
Average number of points per batch           ...      125
Average number of grid points per atom       ...     2974
UseSFitting                                  ... on
Grids setup in   5.8 sec
Initializing property integral containers    ... done (  0.0 sec)

SHARK setup successfully completed in   6.9 seconds

Maximum memory used throughout the entire STARTUP-calculation: 72.9 MB
Occupation numbers will be reassigned to an Aufbau configuration
             **** ENERGY FILE WAS UPDATED (Inputs/Catechin_CPCM.en.tmp) ****
Finished Guess after   0.6 sec
Maximum memory used throughout the entire GUESS-calculation: 26.1 MB
--------------------
CPCM SOLVATION MODEL
--------------------
CPCM parameters:
  Epsilon                                         ...      80.1510
  Refrac                                          ...       1.3328
  Rsolv                                           ...       1.3000
  Surface type                                    ... GAUSSIAN VDW
  Discretization scheme                           ... Constant charge density
    Threshold for H atoms                         ...       5.0000 (charges/Ang^2)
    Threshold for non-H atoms                     ...       5.0000 (charges/Ang^2)
  Epsilon function type                           ...         CPCM
Solvent:                                          ... WATER
Radii:
  Scheme                                          ... Element-dependent radii
  Radius for O  used is    3.4469 Bohr (=   1.8240 Ang.)
  Radius for C  used is    3.8550 Bohr (=   2.0400 Ang.)
  Radius for H  used is    2.4944 Bohr (=   1.3200 Ang.)
Calculating surface                               ...        done! (  0.0s)
Cavity surface points                             ...         3009
Cavity Volume                                     ...    2160.9866
Cavity Surface-area                               ...    1120.3899
Calculating surface distance matrix               ...        done! (  0.1s)
Performing Cholesky decomposition & store         ...        done! (  0.9s)
Overall time for CPCM initialization              ...                 1.0s

----------------------------------------D-I-I-S--------------------------------------------
Iteration    Energy (Eh)           Delta-E    RMSDP     MaxDP     DIISErr   Damp  Time(sec)
-------------------------------------------------------------------------------------------
               ***  Starting incremental Fock matrix formation  ***
                              *** Initializing SOSCF ***
---------------------------------------S-O-S-C-F--------------------------------------
Iteration    Energy (Eh)           Delta-E    RMSDP     MaxDP     MaxGrad    Time(sec)
--------------------------------------------------------------------------------------
    1    -1030.7789302185781253     0.00e+00  2.60e-05  1.52e-03  9.03e-05    23.4
               *** Restarting incremental Fock matrix formation ***
    2    -1030.7789454064288748    -1.52e-05  1.40e-05  5.40e-04  1.23e-04    21.9
    3    -1030.7789472034676237    -1.80e-06  3.27e-06  1.06e-04  1.79e-05    13.2
    4    -1030.7789471991407027     4.33e-09  1.44e-06  5.91e-05  1.96e-05    12.0
                 **** Energy Check signals convergence ****

               *****************************************************
               *                     SUCCESS                       *
               *           SCF CONVERGED AFTER   4 CYCLES          *
               *****************************************************

Recomputing exchange energy using gridx3       ... done (   28.462 sec)
Old exchange energy                            :    -26.465930623 Eh
New exchange energy                            :    -26.465952366 Eh
Exchange energy change after final integration :     -0.000021744 Eh
Total energy after final integration           :  -1030.778968994 Eh
             **** ENERGY FILE WAS UPDATED (Inputs/Catechin_CPCM.en.tmp) ****

----------------
TOTAL SCF ENERGY
----------------

Total Energy       :      -1030.77896899435632 Eh          -28048.92173 eV

Components:
Nuclear Repulsion  :       1636.65938986481183 Eh           44535.76615 eV
Electronic Energy  :      -2667.39555972674043 Eh          -72583.52326 eV
One Electron Energy:      -4661.37854735688506 Eh         -126842.55882 eV
Two Electron Energy:       1993.98298763014441 Eh           54259.03557 eV
CPCM Dielectric    :         -0.04277738878545 Eh              -1.16403 eV

Virial components:
Potential Energy   :      -2055.59295180993649 Eh          -55935.52793 eV
Kinetic Energy     :       1024.81398281558018 Eh           27886.60620 eV
Virial Ratio       :          2.00582055502637

DFT components:
N(Alpha)           :       76.000011184470 electrons
N(Beta)            :       76.000011184470 electrons
N(Total)           :      152.000022368939 electrons
E(X)               :     -105.197644340506 Eh       
E(C)               :       -6.208480548489 Eh       
E(XC)              :     -111.406124888995 Eh       

CPCM Solvation Model Properties:
Surface-charge          :         -0.01555862377863
Corrected charge        :          0.00000000000000
Outlying charge corr.   :          0.00001312003148 Eh               0.00036 eV
Free-energy (cav+disp)  :  This term is not implemented in the current solvation scheme

---------------
SCF CONVERGENCE
---------------

  Last Energy change         ...   -4.3269e-09  Tolerance :   1.0000e-08
  Last MAX-Density change    ...    5.9113e-05  Tolerance :   1.0000e-07
  Last RMS-Density change    ...    1.4433e-06  Tolerance :   5.0000e-09
  Last DIIS Error            ...    1.3155e-03  Tolerance :   5.0000e-07
  Last Orbital Gradient      ...    1.9605e-05  Tolerance :   1.0000e-05
  Last Orbital Rotation      ...    3.5632e-05  Tolerance :   1.0000e-05


Total SCF time: 0 days 0 hours 1 min 53 sec 
Finished LeanSCF after 114.5 sec

Maximum memory used throughout the entire LEANSCF-calculation: 92.4 MB

------------------------------------------------------------------------------
                         ORCA PROPERTY INTEGRAL CALCULATIONS
------------------------------------------------------------------------------

GBWName                                   ... Inputs/Catechin_CPCM.gbw
Number of atoms                           ...     35
Number of basis functions                 ...    322
Max core memory                           ...   4096 MB

Dipole integrals                          ... YES
Quadrupole integrals                      ...  NO
Linear momentum integrals                 ...  NO
Angular momentum integrals                ...  NO
Higher moments length integrals           ...  NO
Higher moments velocity integrals         ...  NO
Kinetic energy integrals                  ...  NO
GIAO right hand sides                     ...  NO
GIAO dipole derivative integrals          ...  NO
SOC integrals                             ...  NO
EPR diamagnetic integrals (GIAO)          ...  NO
EPR gauge integrals                       ...  NO
Field gradient integrals                  ...  NO (   0 nuclei)
Spin-dipole/Fermi contact integrals       ...  NO (   0 nuclei)
Contact density integrals                 ...  NO (   0 nuclei)
Nucleus-orbit integrals                   ...  NO (   0 nuclei)
Geometric perturbations                   ...  NO (  35 nuclei)

Choice of electric origin   ... Center of mass
Position of electric origin ... ( -0.0130, -0.0038,  0.0524) 
Choice of magnetic origin   ... GIAO
Position of magnetic origin ... (  0.0000,  0.0000,  0.0000) 

Calculating integrals                     ... Electric Dipole (Length)     done (  0.0 sec)

Property integrals calculated in   0.1 sec

Maximum memory used throughout the entire PROPINT-calculation: 25.8 MB

-------------------------   --------------------
FINAL SINGLE POINT ENERGY     -1030.778968994356
-------------------------   --------------------

------------------------------------------------------------------------------
                         ORCA SCF GRADIENT CALCULATION
------------------------------------------------------------------------------

Nuc. rep. gradient        (SHARK) ... done (  0.0 sec)
HCore & Overlap gradient  (SHARK) ... done (  0.9 sec)
Split-RIJ-J gradient      (SHARK) ... done (  4.6 sec)
COSX-gradient                     ... done ( 63.4 sec)
XC gradient                       ... done ( 13.6 sec)
CPCM gradient                     ... done (  4.7 sec)

------------------
CARTESIAN GRADIENT
------------------

   1   O   :   -0.000089566   -0.000038580   -0.000026160
   2   O   :    0.000058128    0.000040559   -0.000003324
   3   O   :    0.000012215    0.000000888   -0.000039438
   4   O   :    0.000010085    0.000036415   -0.000021397
   5   O   :    0.000066763   -0.000020356    0.000023738
   6   O   :   -0.000028946   -0.000016778   -0.000043138
   7   C   :   -0.000140487   -0.000104443   -0.000009493
   8   C   :    0.000155190    0.000111461   -0.000004177
   9   C   :    0.000046389   -0.000007772   -0.000041819
  10   C   :    0.000089042    0.000098572    0.000016566
  11   C   :   -0.000011146   -0.000117416    0.000001905
  12   C   :   -0.000093544   -0.000046325    0.000001281
  13   C   :   -0.000053325   -0.000091234    0.000004079
  14   C   :    0.000055596   -0.000005197   -0.000000991
  15   C   :    0.000037200    0.000051549    0.000071534
  16   C   :    0.000057519   -0.000005700    0.000069550
  17   C   :    0.000003962    0.000041680   -0.000014409
  18   C   :    0.000004819    0.000008284   -0.000000324
  19   C   :   -0.000157725   -0.000042915   -0.000146236
  20   C   :   -0.000028976   -0.000054165   -0.000095681
  21   C   :    0.000114838    0.000069269    0.000186136
  22   H   :   -0.000018980    0.000000427   -0.000003815
  23   H   :   -0.000020091    0.000035850   -0.000010026
  24   H   :   -0.000027307   -0.000001293   -0.000004661
  25   H   :    0.000012192   -0.000001167   -0.000002196
  26   H   :   -0.000009519    0.000003671   -0.000000611
  27   H   :    0.000025092   -0.000009003   -0.000025666
  28   H   :   -0.000017428    0.000028905    0.000041485
  29   H   :   -0.000007026    0.000003588    0.000000719
  30   H   :    0.000006271   -0.000015875   -0.000007719
  31   H   :   -0.000011172    0.000006262    0.000017219
  32   H   :   -0.000006725    0.000014129    0.000011537
  33   H   :   -0.000003166   -0.000006488    0.000007532
  34   H   :   -0.000011955    0.000017103    0.000021202
  35   H   :   -0.000018217    0.000016095    0.000026799

Difference to translation invariance:
           :   -0.0000000001    0.0000000000    0.0000000001

Difference to rotation invariance:
           :    0.0001005392    0.0013725750   -0.0002057461

Norm of the Cartesian gradient     ...    0.0005472871
RMS gradient                       ...    0.0000534098
MAX gradient                       ...    0.0001861361

-------
TIMINGS
-------

Total SCF gradient time     ....       87.347 sec

Densities                   ....       0.002 sec  (  0.0%)
One electron gradient       ....       0.929 sec  (  1.1%)
RI-J Coulomb gradient       ....       4.608 sec  (  5.3%)
COSX gradient               ....      63.414 sec  ( 72.6%)
XC gradient                 ....      13.639 sec  ( 15.6%)
CPCM gradient               ....       4.720 sec  (  5.4%)
   A-Matrix (El+Nuc)        ....       0.166 sec  (  0.2%)
   Potential                ....       4.554 sec  (  5.2%)

Maximum memory used throughout the entire SCFGRAD-calculation: 56.8 MB
------------------------------------------------------------------------------
                         ORCA GEOMETRY RELAXATION STEP
------------------------------------------------------------------------------

Reading the OPT-File                    .... done
Getting information on internals        .... done
Copying old internal coords+grads       .... done
Making the new internal coordinates     .... (2022 redundants) done
Validating the new internal coordinates .... (2022 redundants) done
Calculating the B-matrix                .... done
Calculating the G,G- and P matrices     .... done
Transforming gradient to internals      .... done
Projecting the internal gradient        .... done
Number of atoms                         ....  35
Number of internal coordinates          .... 183
Current Energy                          .... -1030.778968994 Eh
Current gradient norm                   ....     0.000547287 Eh/bohr
Maximum allowed component of the step   ....  0.300
Current trust radius                    ....  0.300
Updating the Hessian (BFGS)             .... done
Forming the augmented Hessian           .... done
Diagonalizing the augmented Hessian     .... done
Last element of RFO vector              ....  0.999897755
Lowest eigenvalues of augmented Hessian:
 -0.000001602  0.002998488  0.006252909  0.014569511  0.018851341
Length of the computed step             ....  0.014301071
The final length of the internal step   ....  0.014301071
Converting the step to Cartesian space:
 Initial RMS(Int)=    0.0010571656
Transforming coordinates:
 Iter   0:  RMS(Cart)=    0.0047503092 RMS(Int)=    0.0010571662
done
Storing new coordinates                 .... done
The predicted energy change is          ....    -0.000000801
Previously predicted energy change      ....    -0.000001549
Actually observed energy change         ....     0.000006198
Ratio of predicted to observed change   ....     4.002622033
New trust radius                        ....     0.200000000

                                .--------------------.
          ----------------------|Geometry convergence|-------------------------
          Item                value                   Tolerance       Converged
          ---------------------------------------------------------------------
          Energy change       0.0000061984            0.0000050000      NO
          RMS gradient        0.0000254648            0.0001000000      YES
          MAX gradient        0.0000993303            0.0003000000      YES
          RMS step            0.0010571656            0.0020000000      YES
          MAX step            0.0054748792            0.0040000000      NO
          -------------------------------------------------------------------------
          ........................................................
          Max(Bonds)      0.0003      Max(Angles)    0.04
          Max(Dihed)        0.31      Max(Improp)    0.00
          ---------------------------------------------------------------------

The optimization has not yet converged - more geometry cycles are needed


    ---------------------------------------------------------------------------
                         Redundant Internal Coordinates
                            (Angstroem and degrees)

        Definition                    Value    dE/dq     Step     New-Value
    ----------------------------------------------------------------------------
     1. B(C   6,O   1)                1.4232 -0.000087  0.0003    1.4234   
     2. B(C   7,O   0)                1.4461 -0.000075  0.0001    1.4461   
     3. B(C   7,C   6)                1.5385  0.000006 -0.0001    1.5384   
     4. B(C   8,C   6)                1.5316  0.000074 -0.0001    1.5315   
     5. B(C   9,C   8)                1.5110  0.000027  0.0001    1.5110   
     6. B(C  10,C   9)                1.4002 -0.000044  0.0001    1.4003   
     7. B(C  10,O   0)                1.3721  0.000061 -0.0001    1.3720   
     8. B(C  11,C   7)                1.5104  0.000047 -0.0001    1.5104   
     9. B(C  12,C   9)                1.4073 -0.000025 -0.0000    1.4073   
    10. B(C  12,O   2)                1.3677 -0.000014  0.0000    1.3677   
    11. B(C  13,C  10)                1.4018  0.000039 -0.0001    1.4017   
    12. B(C  14,C  11)                1.4046  0.000000 -0.0001    1.4045   
    13. B(C  15,C  11)                1.3956 -0.000043  0.0001    1.3957   
    14. B(C  16,C  12)                1.3959  0.000052 -0.0000    1.3959   
    15. B(C  17,O   3)                1.3673  0.000029 -0.0000    1.3673   
    16. B(C  17,C  16)                1.4008  0.000010 -0.0000    1.4008   
    17. B(C  17,C  13)                1.3952 -0.000005  0.0001    1.3952   
    18. B(C  18,C  14)                1.3930  0.000041  0.0000    1.3931   
    19. B(C  18,O   4)                1.3685  0.000006  0.0001    1.3686   
    20. B(C  19,C  15)                1.3993  0.000021 -0.0001    1.3992   
    21. B(C  20,C  19)                1.3942  0.000070  0.0000    1.3943   
    22. B(C  20,C  18)                1.4117 -0.000099 -0.0000    1.4117   
    23. B(C  20,O   5)                1.3675  0.000038  0.0000    1.3676   
    24. B(H  21,C   6)                1.1013 -0.000000  0.0000    1.1013   
    25. B(H  22,C   7)                1.0991 -0.000002  0.0000    1.0992   
    26. B(H  23,C   8)                1.1000 -0.000000  0.0000    1.1000   
    27. B(H  24,C   8)                1.0973  0.000006 -0.0000    1.0973   
    28. B(H  25,C  13)                1.0863  0.000008 -0.0000    1.0863   
    29. B(H  26,C  14)                1.0879 -0.000009  0.0000    1.0879   
    30. B(H  27,O   1)                0.9721 -0.000005  0.0000    0.9722   
    31. B(H  28,C  15)                1.0867  0.000001 -0.0000    1.0867   
    32. B(H  29,C  16)                1.0865  0.000006 -0.0000    1.0865   
    33. B(H  30,C  19)                1.0881 -0.000003  0.0000    1.0881   
    34. B(H  31,O   2)                0.9727 -0.000003  0.0000    0.9727   
    35. B(H  32,O   3)                0.9726 -0.000004  0.0000    0.9726   
    36. B(H  33,O   4)                0.9726  0.000000  0.0000    0.9726   
    37. B(H  34,O   5)                0.9729 -0.000008  0.0000    0.9729   
    38. A(C   7,O   0,C  10)          117.82 -0.000010    0.02    117.84   
    39. A(C   6,O   1,H  27)          107.27 -0.000039   -0.00    107.27   
    40. A(C  12,O   2,H  31)          109.22 -0.000027    0.00    109.22   
    41. A(C  17,O   3,H  32)          109.30 -0.000011   -0.00    109.29   
    42. A(C  18,O   4,H  33)          108.87  0.000050   -0.02    108.84   
    43. A(C  20,O   5,H  34)          108.84  0.000048   -0.02    108.82   
    44. A(O   1,C   6,C   8)          111.74  0.000000    0.00    111.74   
    45. A(C   8,C   6,H  21)          109.85  0.000033   -0.02    109.83   
    46. A(C   7,C   6,C   8)          109.43 -0.000024    0.03    109.46   
    47. A(O   1,C   6,C   7)          107.32  0.000032   -0.04    107.28   
    48. A(C   7,C   6,H  21)          107.79 -0.000018    0.01    107.80   
    49. A(O   1,C   6,H  21)          110.60 -0.000025    0.01    110.61   
    50. A(C   6,C   7,C  11)          114.13 -0.000087    0.03    114.16   
    51. A(C  11,C   7,H  22)          109.31 -0.000006   -0.00    109.31   
    52. A(C   6,C   7,H  22)          108.08  0.000042   -0.01    108.07   
    53. A(O   0,C   7,C  11)          107.49  0.000053   -0.02    107.47   
    54. A(O   0,C   7,H  22)          108.55 -0.000008    0.00    108.55   
    55. A(O   0,C   7,C   6)          109.17  0.000009   -0.00    109.17   
    56. A(C   6,C   8,C   9)          110.97  0.000019    0.00    110.98   
    57. A(C   9,C   8,H  24)          110.43 -0.000013    0.01    110.44   
    58. A(C   6,C   8,H  24)          109.76  0.000006   -0.01    109.75   
    59. A(C   9,C   8,H  23)          111.15  0.000013   -0.02    111.12   
    60. A(C   6,C   8,H  23)          107.93 -0.000027    0.02    107.95   
    61. A(H  23,C   8,H  24)          106.47  0.000001   -0.00    106.47   
    62. A(C   8,C   9,C  10)          120.91 -0.000043    0.01    120.92   
    63. A(C  10,C   9,C  12)          117.16  0.000033   -0.00    117.15   
    64. A(C   8,C   9,C  12)          121.93  0.000010   -0.01    121.92   
    65. A(C   9,C  10,C  13)          122.19 -0.000026    0.01    122.19   
    66. A(O   0,C  10,C  13)          115.63 -0.000011    0.01    115.64   
    67. A(O   0,C  10,C   9)          122.17  0.000038   -0.01    122.16   
    68. A(C  14,C  11,C  15)          118.93  0.000015   -0.00    118.93   
    69. A(C   7,C  11,C  15)          120.48 -0.000028    0.00    120.49   
    70. A(C   7,C  11,C  14)          120.57  0.000013    0.00    120.57   
    71. A(O   2,C  12,C   9)          116.30  0.000035   -0.01    116.29   
    72. A(C   9,C  12,C  16)          122.06 -0.000014   -0.00    122.06   
    73. A(O   2,C  12,C  16)          121.64 -0.000021    0.01    121.65   
    74. A(C  17,C  13,H  25)          121.40 -0.000008    0.00    121.41   
    75. A(C  10,C  13,H  25)          119.71 -0.000022    0.00    119.71   
    76. A(C  10,C  13,C  17)          118.89  0.000030   -0.01    118.88   
    77. A(C  11,C  14,C  18)          121.03 -0.000027    0.01    121.04   
    78. A(C  11,C  14,H  26)          120.14 -0.000023   -0.01    120.14   
    79. A(C  18,C  14,H  26)          118.82  0.000050   -0.00    118.81   
    80. A(C  11,C  15,C  19)          120.41  0.000013   -0.00    120.41   
    81. A(C  19,C  15,H  28)          119.53 -0.000010    0.00    119.53   
    82. A(C  11,C  15,H  28)          120.06 -0.000002    0.00    120.06   
    83. A(C  17,C  16,H  29)          120.06  0.000012   -0.01    120.04   
    84. A(C  12,C  16,H  29)          120.96 -0.000018    0.01    120.97   
    85. A(C  12,C  16,C  17)          118.99  0.000005    0.00    118.99   
    86. A(C  13,C  17,C  16)          120.72 -0.000028    0.00    120.72   
    87. A(O   3,C  17,C  16)          116.95  0.000037   -0.00    116.95   
    88. A(O   3,C  17,C  13)          122.33 -0.000009   -0.00    122.33   
    89. A(C  14,C  18,C  20)          119.69  0.000024   -0.01    119.69   
    90. A(O   4,C  18,C  20)          116.93  0.000034    0.00    116.93   
    91. A(O   4,C  18,C  14)          123.38 -0.000058    0.00    123.39   
    92. A(C  20,C  19,H  30)          118.99  0.000004    0.02    119.01   
    93. A(C  15,C  19,H  30)          120.36  0.000030   -0.03    120.33   
    94. A(C  15,C  19,C  20)          120.65 -0.000034    0.01    120.66   
    95. A(O   5,C  20,C  18)          117.11  0.000030   -0.00    117.11   
    96. A(C  18,C  20,C  19)          119.28  0.000009   -0.00    119.27   
    97. A(O   5,C  20,C  19)          123.61 -0.000039    0.01    123.62   
    98. D(C   8,C   6,O   1,H  27)     57.43  0.000040   -0.31     57.11   
    99. D(H  21,C   6,O   1,H  27)    -65.29  0.000015   -0.29    -65.58   
   100. D(C   7,C   6,O   1,H  27)    177.39  0.000031   -0.29    177.10   
   101. D(O   0,C   7,C   6,O   1)    176.50 -0.000012    0.05    176.55   
   102. D(C  11,C   7,O   0,C  10)    171.47 -0.000044    0.02    171.49   
   103. D(H  22,C   7,O   0,C  10)    -70.41 -0.000027    0.01    -70.40   
   104. D(C  11,C   7,C   6,O   1)     56.22 -0.000029    0.06     56.27   
   105. D(O   0,C   7,C   6,C   8)    -62.07 -0.000007    0.05    -62.02   
   106. D(C  11,C   7,C   6,H  21)    -62.93 -0.000008    0.06    -62.87   
   107. D(C  11,C   7,C   6,C   8)    177.64 -0.000023    0.06    177.70   
   108. D(C   6,C   7,O   0,C  10)     47.19  0.000024   -0.00     47.19   
   109. D(O   0,C   7,C   6,H  21)     57.35  0.000009    0.05     57.40   
   110. D(C   9,C   8,C   6,H  21)    -72.22  0.000010   -0.08    -72.30   
   111. D(C   9,C   8,C   6,O   1)    164.64  0.000018   -0.07    164.56   
   112. D(C   9,C   8,C   6,C   7)     45.92 -0.000007   -0.05     45.87   
   113. D(H  23,C   8,C   6,O   1)     42.63  0.000008   -0.06     42.57   
   114. D(H  23,C   8,C   6,C   7)    -76.09 -0.000016   -0.04    -76.13   
   115. D(H  23,C   8,C   6,H  21)    165.77  0.000001   -0.06    165.70   
   116. D(C  12,C   9,C   8,C   6)    163.10  0.000002    0.05    163.14   
   117. D(C  10,C   9,C   8,H  23)    104.18 -0.000008    0.03    104.21   
   118. D(C  10,C   9,C   8,H  24)   -137.88 -0.000007    0.02   -137.86   
   119. D(C  12,C   9,C   8,H  23)    -76.79 -0.000012    0.06    -76.73   
   120. D(C  10,C   9,C   8,C   6)    -15.93  0.000005    0.02    -15.91   
   121. D(C  13,C  10,C   9,C  12)     -0.86 -0.000006    0.02     -0.84   
   122. D(C  13,C  10,C   9,C   8)    178.21 -0.000009    0.05    178.26   
   123. D(O   0,C  10,C   9,C  12)   -179.67 -0.000002    0.01   -179.66   
   124. D(O   0,C  10,C   9,C   8)     -0.60 -0.000005    0.04     -0.56   
   125. D(C  13,C  10,O   0,C   7)    165.03 -0.000003   -0.06    164.97   
   126. D(C   9,C  10,O   0,C   7)    -16.09 -0.000007   -0.05    -16.14   
   127. D(C  14,C  11,C   7,C   6)     71.03  0.000022   -0.22     70.80   
   128. D(C  14,C  11,C   7,O   0)    -50.19  0.000028   -0.23    -50.42   
   129. D(C  15,C  11,C   7,C   6)   -107.68  0.000027   -0.27   -107.95   
   130. D(C  15,C  11,C   7,O   0)    131.10  0.000033   -0.27    130.83   
   131. D(C  14,C  11,C   7,H  22)   -167.82  0.000012   -0.22   -168.04   
   132. D(C  16,C  12,C   9,C  10)      0.80  0.000004   -0.02      0.78   
   133. D(C  16,C  12,C   9,C   8)   -178.26  0.000008   -0.04   -178.31   
   134. D(O   2,C  12,C   9,C  10)   -179.45  0.000003   -0.02   -179.47   
   135. D(O   2,C  12,C   9,C   8)      1.49  0.000007   -0.04      1.44   
   136. D(C  16,C  12,O   2,H  31)      1.72  0.000019   -0.10      1.62   
   137. D(C   9,C  12,O   2,H  31)   -178.03  0.000020   -0.10   -178.13   
   138. D(H  25,C  13,C  10,C   9)   -179.94  0.000004   -0.02   -179.96   
   139. D(C  17,C  13,C  10,O   0)    179.12 -0.000000   -0.00    179.12   
   140. D(C  17,C  13,C  10,C   9)      0.24  0.000003   -0.01      0.23   
   141. D(H  25,C  13,C  10,O   0)     -1.06  0.000001   -0.01     -1.07   
   142. D(H  26,C  14,C  11,C  15)   -179.12  0.000001   -0.00   -179.12   
   143. D(H  26,C  14,C  11,C   7)      2.15  0.000006   -0.04      2.11   
   144. D(C  18,C  14,C  11,C  15)      0.14  0.000001    0.00      0.14   
   145. D(C  18,C  14,C  11,C   7)   -178.59  0.000007   -0.04   -178.63   
   146. D(H  28,C  15,C  11,C  14)    179.61 -0.000000   -0.00    179.61   
   147. D(H  28,C  15,C  11,C   7)     -1.66 -0.000005    0.04     -1.62   
   148. D(C  19,C  15,C  11,C  14)     -0.52 -0.000001   -0.00     -0.52   
   149. D(C  19,C  15,C  11,C   7)    178.21 -0.000005    0.04    178.25   
   150. D(H  29,C  16,C  12,C   9)    179.77 -0.000001    0.01    179.78   
   151. D(H  29,C  16,C  12,O   2)      0.04 -0.000001    0.01      0.05   
   152. D(C  17,C  16,C  12,C   9)     -0.11  0.000001   -0.00     -0.11   
   153. D(C  17,C  16,C  12,O   2)   -179.85  0.000002   -0.00   -179.85   
   154. D(C  16,C  17,C  13,H  25)   -179.32  0.000000   -0.00   -179.33   
   155. D(C  16,C  17,C  13,C  10)      0.50  0.000001   -0.01      0.49   
   156. D(O   3,C  17,C  13,H  25)      0.23  0.000000   -0.00      0.23   
   157. D(O   3,C  17,C  13,C  10)   -179.95  0.000002   -0.01   -179.96   
   158. D(C  16,C  17,O   3,H  32)   -179.73  0.000011   -0.04   -179.77   
   159. D(O   3,C  17,C  16,C  12)    179.87 -0.000003    0.01    179.88   
   160. D(C  13,C  17,O   3,H  32)      0.70  0.000011   -0.04      0.66   
   161. D(C  13,C  17,C  16,H  29)    179.56 -0.000001    0.01    179.56   
   162. D(C  13,C  17,C  16,C  12)     -0.56 -0.000003    0.01     -0.54   
   163. D(O   3,C  17,C  16,H  29)     -0.02 -0.000001    0.01     -0.01   
   164. D(C  20,C  18,C  14,H  26)    179.59 -0.000003    0.01    179.59   
   165. D(C  20,C  18,C  14,C  11)      0.32 -0.000003    0.00      0.33   
   166. D(O   4,C  18,C  14,H  26)     -0.38 -0.000003    0.01     -0.37   
   167. D(O   4,C  18,C  14,C  11)   -179.64 -0.000003    0.00   -179.64   
   168. D(C  20,C  18,O   4,H  33)   -179.17  0.000006    0.00   -179.16   
   169. D(C  14,C  18,O   4,H  33)      0.80  0.000006    0.00      0.80   
   170. D(H  30,C  19,C  15,H  28)     -0.12 -0.000001    0.00     -0.12   
   171. D(H  30,C  19,C  15,C  11)   -179.99 -0.000000    0.00   -179.99   
   172. D(C  20,C  19,C  15,H  28)   -179.69  0.000001   -0.00   -179.69   
   173. D(C  20,C  19,C  15,C  11)      0.45  0.000002   -0.00      0.44   
   174. D(C  18,C  20,C  19,H  30)   -179.55 -0.000001    0.00   -179.55   
   175. D(C  18,C  20,C  19,C  15)      0.02 -0.000003    0.01      0.02   
   176. D(O   5,C  20,C  19,H  30)      0.14 -0.000002    0.00      0.15   
   177. D(O   5,C  20,C  19,C  15)    179.71 -0.000003    0.01    179.72   
   178. D(C  19,C  20,C  18,C  14)     -0.40  0.000004   -0.01     -0.41   
   179. D(C  19,C  20,C  18,O   4)    179.57  0.000004   -0.01    179.56   
   180. D(O   5,C  20,C  18,C  14)    179.89  0.000004   -0.01    179.88   
   181. D(O   5,C  20,C  18,O   4)     -0.14  0.000004   -0.01     -0.15   
   182. D(C  19,C  20,O   5,H  34)      0.21 -0.000003    0.02      0.23   
   183. D(C  18,C  20,O   5,H  34)    179.91 -0.000004    0.02    179.93   
    ----------------------------------------------------------------------------

Geometry step timings:
Preparation and reading OPT file:      0.004 s ( 4.131 %)
Internal coordinates            :      0.002 s ( 1.616 %)
B/P matrices and projection     :      0.007 s ( 6.786 %)
Hessian update/contruction      :      0.025 s (22.579 %)
Making the step                 :      0.005 s ( 4.686 %)
Converting the step to Cartesian:      0.002 s ( 1.422 %)
Storing new data                :      0.003 s ( 2.701 %)
Checking convergence            :      0.003 s ( 3.201 %)
Final printing                  :      0.058 s (52.874 %)
Total time                      :      0.109 s

Time for energy+gradient        :    210.434 s
Time for complete geometry iter :    211.070 s

         *************************************************************
         *                GEOMETRY OPTIMIZATION CYCLE  10            *
         *************************************************************
---------------------------------
CARTESIAN COORDINATES (ANGSTROEM)
---------------------------------
  O      0.428175    0.649879   -0.238183
  O     -0.720416   -2.812463   -0.021780
  O      4.391584   -1.977298    0.270954
  O      4.680847    2.782264    0.072716
  O     -4.163143    1.336962    1.962961
  O     -5.852285    0.747865    0.001555
  C      0.108989   -1.701201    0.299701
  C     -0.335594   -0.526915   -0.589099
  C      1.588047   -2.004152    0.042893
  C      2.404937   -0.733126    0.022355
  C      1.787676    0.516723   -0.110276
  C     -1.798295   -0.173214   -0.460001
  C      3.805993   -0.746805    0.153915
  C      2.515816    1.714368   -0.096666
  C     -2.285868    0.434402    0.708612
  C     -2.691921   -0.468822   -1.490505
  C      4.560111    0.427693    0.170081
  C      3.902274    1.658551    0.049276
  C     -3.637874    0.739158    0.849476
  C     -4.052797   -0.173527   -1.354280
  C     -4.537016    0.428034   -0.193405
  H     -0.034094   -1.401605    1.349777
  H     -0.115652   -0.787789   -1.633945
  H      1.663047   -2.539112   -0.915342
  H      1.965094   -2.689712    0.812277
  H      1.995385    2.662036   -0.202092
  H     -1.604406    0.686463    1.518351
  H     -0.409184   -3.567113    0.506173
  H     -2.333572   -0.933138   -2.405358
  H      5.641009    0.396672    0.276117
  H     -4.748434   -0.404726   -2.158445
  H      5.351081   -1.865702    0.385110
  H      4.114070    3.567789   -0.014998
  H     -3.444648    1.509540    2.595313
  H     -6.359433    0.484024   -0.785642

----------------------------
CARTESIAN COORDINATES (A.U.)
----------------------------
  NO LB      ZA    FRAG     MASS         X           Y           Z
   0 O     8.0000    0    15.999    0.809133    1.228094   -0.450101
   1 O     8.0000    0    15.999   -1.361389   -5.314785   -0.041158
   2 O     8.0000    0    15.999    8.298891   -3.736552    0.512030
   3 O     8.0000    0    15.999    8.845519    5.257717    0.137414
   4 O     8.0000    0    15.999   -7.867200    2.526493    3.709459
   5 O     8.0000    0    15.999  -11.059217    1.413260    0.002939
   6 C     6.0000    0    12.011    0.205959   -3.214804    0.566353
   7 C     6.0000    0    12.011   -0.634181   -0.995725   -1.113235
   8 C     6.0000    0    12.011    3.000974   -3.787298    0.081057
   9 C     6.0000    0    12.011    4.544673   -1.385408    0.042244
  10 C     6.0000    0    12.011    3.378217    0.976465   -0.208391
  11 C     6.0000    0    12.011   -3.398286   -0.327327   -0.869276
  12 C     6.0000    0    12.011    7.192284   -1.411257    0.290857
  13 C     6.0000    0    12.011    4.754203    3.239686   -0.182671
  14 C     6.0000    0    12.011   -4.319664    0.820902    1.339082
  15 C     6.0000    0    12.011   -5.086994   -0.885945   -2.816646
  16 C     6.0000    0    12.011    8.617360    0.808222    0.321407
  17 C     6.0000    0    12.011    7.374230    3.134206    0.093119
  18 C     6.0000    0    12.011   -6.874586    1.396806    1.605277
  19 C     6.0000    0    12.011   -7.658677   -0.327919   -2.559219
  20 C     6.0000    0    12.011   -8.573717    0.808866   -0.365482
  21 H     1.0000    0     1.008   -0.064428   -2.648649    2.550710
  22 H     1.0000    0     1.008   -0.218550   -1.488706   -3.087708
  23 H     1.0000    0     1.008    3.142703   -4.798227   -1.729745
  24 H     1.0000    0     1.008    3.713490   -5.082819    1.534982
  25 H     1.0000    0     1.008    3.770731    5.030519   -0.381899
  26 H     1.0000    0     1.008   -3.031888    1.297226    2.869267
  27 H     1.0000    0     1.008   -0.773247   -6.740866    0.956529
  28 H     1.0000    0     1.008   -4.409813   -1.763376   -4.545469
  29 H     1.0000    0     1.008   10.659961    0.749601    0.521785
  30 H     1.0000    0     1.008   -8.973239   -0.764821   -4.078870
  31 H     1.0000    0     1.008   10.112078   -3.525666    0.727752
  32 H     1.0000    0     1.008    7.774466    6.742145   -0.028341
  33 H     1.0000    0     1.008   -6.509442    2.852616    4.904431
  34 H     1.0000    0     1.008  -12.017587    0.914672   -1.484648

--------------------------------
INTERNAL COORDINATES (ANGSTROEM)
--------------------------------
 O      0   0   0     0.000000000000     0.00000000     0.00000000
 O      1   0   0     3.654299741998     0.00000000     0.00000000
 O      1   2   0     4.782247775630    74.55498485     0.00000000
 O      1   2   3     4.767487815557   134.45033642   356.79852084
 O      1   2   3     5.137832347812    79.65681814   210.58669443
 O      5   1   2     2.654684251540   102.84964437   289.90629277
 C      2   1   3     1.423434333034    24.57052563    36.95665610
 C      1   2   3     1.446143364117    22.68589067   134.85790338
 C      7   2   1     1.531451030158   111.74252193   236.91587528
 C      9   7   2     1.511038602551   110.97750710   164.56271912
 C      1   2   3     1.371981472503   102.35545950   359.17384338
 C      8   1   2     1.510385619842   107.46750447   120.98000407
 C      3   1   2     1.367745760521    30.88747030   182.49594447
 C     11   1   2     1.401687558564   115.64077922   182.71324947
 C     12   8   1     1.404486128334   120.57222589   309.57904803
 C     12   8   1     1.395668160527   120.48821138   130.82596375
 C     13   3   1     1.395851185862   121.64711544   179.88439379
 C      4   1   2     1.367280569314    28.75818574     3.68480349
 C      5   1   2     1.368622206891    41.41521193   305.69330581
 C     16  12   8     1.399192196620   120.40871422   178.25156501
 C      6   5   1     1.367565543362    62.95255778    11.57104605
 H      7   2   1     1.101313352739   110.61065694   114.22462332
 H      8   1   2     1.099151101746   108.54930171   239.09094669
 H      9   7   2     1.100009952943   107.94652817    42.56546884
 H      9   7   2     1.097318844748   109.74697294   286.91322608
 H     14  11   1     1.086295333721   119.70778795   358.93218574
 H     15  12   8     1.087934353832   120.13741132     2.10725932
 H      2   1   3     0.972160261163   131.83740187    37.20790506
 H     16  12   8     1.086720203941   120.06261790   358.38227009
 H     17  13   3     1.086529447630   120.96831282     0.04565133
 H     20  16  12     1.088137606172   120.33076865   180.01219407
 H      3   1   2     0.972687072530   140.08557780   185.05352072
 H      4   1   2     0.972614846878    80.53471377   183.83676410
 H      5   1   2     0.972567416445    69.02896356   108.90115989
 H      6   5   1     0.972877635924   171.77020738    10.58139258

---------------------------
INTERNAL COORDINATES (A.U.)
---------------------------
 O      0   0   0     0.000000000000     0.00000000     0.00000000
 O      1   0   0     6.905625723635     0.00000000     0.00000000
 O      1   2   0     9.037138600494    74.55498485     0.00000000
 O      1   2   3     9.009246318209   134.45033642   356.79852084
 O      1   2   3     9.709096059367    79.65681814   210.58669443
 O      5   1   2     5.016626207445   102.84964437   289.90629277
 C      2   1   3     2.689901059054    24.57052563    36.95665610
 C      1   2   3     2.732814908569    22.68589067   134.85790338
 C      7   2   1     2.894023034510   111.74252193   236.91587528
 C      9   7   2     2.855449136605   110.97750710   164.56271912
 C      1   2   3     2.592669243844   102.35545950   359.17384338
 C      8   1   2     2.854215178114   107.46750447   120.98000407
 C      3   1   2     2.584664908216    30.88747030   182.49594447
 C     11   1   2     2.648805611010   115.64077922   182.71324947
 C     12   8   1     2.654094141443   120.57222589   309.57904803
 C     12   8   1     2.637430597229   120.48821138   130.82596375
 C     13   3   1     2.637776464989   121.64711544   179.88439379
 C      4   1   2     2.583785824236    28.75818574     3.68480349
 C      5   1   2     2.586321151827    41.41521193   305.69330581
 C     16  12   8     2.644090060332   120.40871422   178.25156501
 C      6   5   1     2.584324347142    62.95255778    11.57104605
 H      7   2   1     2.081180624307   110.61065694   114.22462332
 H      8   1   2     2.077094562098   108.54930171   239.09094669
 H      9   7   2     2.078717555650   107.94652817    42.56546884
 H      9   7   2     2.073632098165   109.74697294   286.91322608
 H     14  11   1     2.052800681290   119.70778795   358.93218574
 H     15  12   8     2.055897980426   120.13741132     2.10725932
 H      2   1   3     1.837116651879   131.83740187    37.20790506
 H     16  12   8     2.053603569647   120.06261790   358.38227009
 H     17  13   3     2.053243092462   120.96831282     0.04565133
 H     20  16  12     2.056282071686   120.33076865   180.01219407
 H      3   1   2     1.838112181086   140.08557780   185.05352072
 H      4   1   2     1.837975694385    80.53471377   183.83676410
 H      5   1   2     1.837886063856    69.02896356   108.90115989
 H      6   5   1     1.838472293714   171.77020738    10.58139258

------------------------------------------------------------------------------
                   ___                                                        
                  /   \      - P O W E R E D   B Y -                         
                 /     \                                                     
                 |  |  |   _    _      __       _____    __    __             
                 |  |  |  | |  | |    /  \     |  _  \  |  |  /  |          
                  \  \/   | |  | |   /    \    | | | |  |  | /  /          
                 / \  \   | |__| |  /  /\  \   | |_| |  |  |/  /          
                |  |  |   |  __  | /  /__\  \  |    /   |      \           
                |  |  |   | |  | | |   __   |  |    \   |  |\   \          
                \     /   | |  | | |  |  |  |  | |\  \  |  | \   \       
                 \___/    |_|  |_| |__|  |__|  |_| \__\ |__|  \__/        
                                                                              
                      - O R C A' S   B I G   F R I E N D -                    
                                      &                                       
                       - I N T E G R A L  F E E D E R -                       
                                                                              
 v1 FN, 2020, v2 2021, v3 2022-2024                                           
------------------------------------------------------------------------------


----------------------
SHARK INTEGRAL PACKAGE
----------------------

Number of atoms                             ...     35
Number of basis functions                   ...    322
Number of shells                            ...    154
Maximum angular momentum                    ...      2
Integral batch strategy                     ... SHARK/LIBINT Hybrid
RI-J (if used) integral strategy            ... SPLIT-RIJ (Revised 2003 algorithm where possible)
Printlevel                                  ...      1
Contraction scheme used                     ... SEGMENTED contraction
Prescreening option                         ... SCHWARTZ
   Thresh                                   ... 2.500e-11
   Tcut                                     ... 2.500e-12
   Tpresel                                  ... 2.500e-12 
Coulomb Range Separation                    ... NOT USED
Exchange Range Separation                   ... NOT USED
Multipole approximations                    ... NOT USED
Finite Nucleus Model                        ... NOT USED
CABS basis                                  ... NOT available
Auxiliary Coulomb fitting basis             ... AVAILABLE
   # of basis functions in Aux-J            ...   1183
   # of shells in Aux-J                     ...    385
   Maximum angular momentum in Aux-J        ...      4
Auxiliary J/K fitting basis                 ... NOT available
Auxiliary Correlation fitting basis         ... NOT available
Auxiliary 'external' fitting basis          ... NOT available

Checking pre-screening integrals            ... done (  0.0 sec) Dimension = 154
   => SHARK Basis and OBASIS are compatible. Storing Pre-screening
Shell pair information
Shell pair cut-off parameter TPreSel        ...   2.5e-12
Total number of shell pairs                 ...     11935
Shell pairs after pre-screening             ...      8445
Total number of primitive shell pairs       ...     69489
Primitive shell pairs kept                  ...     27526
          la=0 lb=0:   2814 shell pairs
          la=1 lb=0:   2888 shell pairs
          la=1 lb=1:    743 shell pairs
          la=2 lb=0:   1208 shell pairs
          la=2 lb=1:    650 shell pairs
          la=2 lb=2:    142 shell pairs

Checking whether 4 symmetric matrices of dimension 322 fit in memory
:Max Core in MB      =   4096.00
 MB in use           =     15.93
 MB left             =   4080.07
 MB needed           =      1.59
 Data fit in memory  = YES
Calculating RI/J V-Matrix + Cholesky decomp.... done (  0.3 sec)
Calculating Nuclear repulsion               ... done (  0.0 sec) ENN=   1636.637701678398 Eh

Diagonalization of the overlap matrix:
Smallest eigenvalue                        ... 4.024e-04
Time for diagonalization                   ...    0.010 sec
Threshold for overlap eigenvalues          ... 1.000e-07
Number of eigenvalues below threshold      ... 0
Time for construction of square roots      ...    0.017 sec
Total time needed                          ...    0.043 sec

-------------------
DFT GRID GENERATION
-------------------

General Integration Accuracy     IntAcc      ... 4.388
Radial Grid Type                 RadialGrid  ... OptM3 with GC (2021)
Angular Grid (max. ang.)         AngularGrid ... 4 (Lebedev-302)
Angular grid pruning method      GridPruning ... 4 (adaptive)
Weight generation scheme         WeightScheme... mBecke (2022)
Basis function cutoff            BFCut       ... 1.0000e-11
Integration weight cutoff        WCut        ... 1.0000e-14
Partially contracted basis set               ... off
Rotationally invariant grid construction     ... off
Angular grids for H and He will be reduced by one unit

Total number of grid points                  ...   170393
Total number of batches                      ...     2679
Average number of points per batch           ...       63
Average number of grid points per atom       ...     4868

--------------------
COSX GRID GENERATION
--------------------

GRIDX 1
-------
General Integration Accuracy     IntAcc      ... 3.816
Radial Grid Type                 RadialGrid  ... OptM3 with GC (2021)
Angular Grid (max. ang.)         AngularGrid ... 1 (Lebedev-50)
Angular grid pruning method      GridPruning ... 4 (adaptive)
Weight generation scheme         WeightScheme... mBecke (2022)
Basis function cutoff            BFCut       ... 1.0000e-11
Integration weight cutoff        WCut        ... 1.0000e-14
Partially contracted basis set               ... on
Rotationally invariant grid construction     ... off
Angular grids for H and He will be reduced by one unit

Total number of grid points                  ...    21680
Total number of batches                      ...      191
Average number of points per batch           ...      113
Average number of grid points per atom       ...      619
UseSFitting                                  ... on

GRIDX 2
-------
General Integration Accuracy     IntAcc      ... 4.020
Radial Grid Type                 RadialGrid  ... OptM3 with GC (2021)
Angular Grid (max. ang.)         AngularGrid ... 2 (Lebedev-110)
Angular grid pruning method      GridPruning ... 4 (adaptive)
Weight generation scheme         WeightScheme... mBecke (2022)
Basis function cutoff            BFCut       ... 1.0000e-11
Integration weight cutoff        WCut        ... 1.0000e-14
Partially contracted basis set               ... on
Rotationally invariant grid construction     ... off
Angular grids for H and He will be reduced by one unit

Total number of grid points                  ...    47474
Total number of batches                      ...      389
Average number of points per batch           ...      122
Average number of grid points per atom       ...     1356
UseSFitting                                  ... on

GRIDX 3
-------
General Integration Accuracy     IntAcc      ... 4.338
Radial Grid Type                 RadialGrid  ... OptM3 with GC (2021)
Angular Grid (max. ang.)         AngularGrid ... 3 (Lebedev-194)
Angular grid pruning method      GridPruning ... 4 (adaptive)
Weight generation scheme         WeightScheme... mBecke (2022)
Basis function cutoff            BFCut       ... 1.0000e-11
Integration weight cutoff        WCut        ... 1.0000e-14
Partially contracted basis set               ... on
Rotationally invariant grid construction     ... off
Angular grids for H and He will be reduced by one unit

Total number of grid points                  ...   104089
Total number of batches                      ...      832
Average number of points per batch           ...      125
Average number of grid points per atom       ...     2974
UseSFitting                                  ... on
Grids setup in   6.4 sec
Initializing property integral containers    ... done (  0.0 sec)

SHARK setup successfully completed in   7.4 seconds

Maximum memory used throughout the entire STARTUP-calculation: 72.9 MB
Occupation numbers will be reassigned to an Aufbau configuration
             **** ENERGY FILE WAS UPDATED (Inputs/Catechin_CPCM.en.tmp) ****
Finished Guess after   0.6 sec
Maximum memory used throughout the entire GUESS-calculation: 26.1 MB
--------------------
CPCM SOLVATION MODEL
--------------------
CPCM parameters:
  Epsilon                                         ...      80.1510
  Refrac                                          ...       1.3328
  Rsolv                                           ...       1.3000
  Surface type                                    ... GAUSSIAN VDW
  Discretization scheme                           ... Constant charge density
    Threshold for H atoms                         ...       5.0000 (charges/Ang^2)
    Threshold for non-H atoms                     ...       5.0000 (charges/Ang^2)
  Epsilon function type                           ...         CPCM
Solvent:                                          ... WATER
Radii:
  Scheme                                          ... Element-dependent radii
  Radius for O  used is    3.4469 Bohr (=   1.8240 Ang.)
  Radius for C  used is    3.8550 Bohr (=   2.0400 Ang.)
  Radius for H  used is    2.4944 Bohr (=   1.3200 Ang.)
Calculating surface                               ...        done! (  0.0s)
Cavity surface points                             ...         3008
Cavity Volume                                     ...    2161.1099
Cavity Surface-area                               ...    1120.4569
Calculating surface distance matrix               ...        done! (  0.1s)
Performing Cholesky decomposition & store         ...        done! (  0.7s)
Overall time for CPCM initialization              ...                 0.8s

----------------------------------------D-I-I-S--------------------------------------------
Iteration    Energy (Eh)           Delta-E    RMSDP     MaxDP     DIISErr   Damp  Time(sec)
-------------------------------------------------------------------------------------------
               ***  Starting incremental Fock matrix formation  ***
                              *** Initializing SOSCF ***
---------------------------------------S-O-S-C-F--------------------------------------
Iteration    Energy (Eh)           Delta-E    RMSDP     MaxDP     MaxGrad    Time(sec)
--------------------------------------------------------------------------------------
    1    -1030.7789111578872507     0.00e+00  3.50e-05  9.76e-04  1.45e-04    20.0
               *** Restarting incremental Fock matrix formation ***
    2    -1030.7789439221205612    -3.28e-05  1.90e-05  4.08e-04  1.92e-04    20.9
    3    -1030.7789481550371420    -4.23e-06  3.97e-06  9.57e-05  2.77e-05    13.4
    4    -1030.7789482021307776    -4.71e-08  1.83e-06  6.87e-05  2.03e-05    13.3
    5    -1030.7789482498737925    -4.77e-08  8.72e-07  1.86e-05  5.23e-06    11.0
    6    -1030.7789482558123382    -5.94e-09  2.80e-07  9.71e-06  1.62e-06    11.0
                 **** Energy Check signals convergence ****

               *****************************************************
               *                     SUCCESS                       *
               *           SCF CONVERGED AFTER   6 CYCLES          *
               *****************************************************

Recomputing exchange energy using gridx3       ... done (   29.590 sec)
Old exchange energy                            :    -26.465914387 Eh
New exchange energy                            :    -26.465940675 Eh
Exchange energy change after final integration :     -0.000026288 Eh
Total energy after final integration           :  -1030.778974539 Eh
             **** ENERGY FILE WAS UPDATED (Inputs/Catechin_CPCM.en.tmp) ****

----------------
TOTAL SCF ENERGY
----------------

Total Energy       :      -1030.77897453924538 Eh          -28048.92188 eV

Components:
Nuclear Repulsion  :       1636.63770167839766 Eh           44535.17599 eV
Electronic Energy  :      -2667.37386539032832 Eh          -72582.93292 eV
One Electron Energy:      -4661.33511356521922 Eh         -126841.37693 eV
Two Electron Energy:       1993.96124817489090 Eh           54258.44401 eV
CPCM Dielectric    :         -0.04278453935441 Eh              -1.16423 eV

Virial components:
Potential Energy   :      -2055.59277636799652 Eh          -55935.52315 eV
Kinetic Energy     :       1024.81380182875091 Eh           27886.60128 eV
Virial Ratio       :          2.00582073806954

DFT components:
N(Alpha)           :       76.000011643082 electrons
N(Beta)            :       76.000011643082 electrons
N(Total)           :      152.000023286164 electrons
E(X)               :     -105.197583295873 Eh       
E(C)               :       -6.208472622592 Eh       
E(XC)              :     -111.406055918465 Eh       

CPCM Solvation Model Properties:
Surface-charge          :         -0.01555545715140
Corrected charge        :         -0.00000000000000
Outlying charge corr.   :          0.00001311451468 Eh               0.00036 eV
Free-energy (cav+disp)  :  This term is not implemented in the current solvation scheme

---------------
SCF CONVERGENCE
---------------

  Last Energy change         ...    5.9385e-09  Tolerance :   1.0000e-08
  Last MAX-Density change    ...    9.7095e-06  Tolerance :   1.0000e-07
  Last RMS-Density change    ...    2.7974e-07  Tolerance :   5.0000e-09
  Last DIIS Error            ...    1.6101e-03  Tolerance :   5.0000e-07
  Last Orbital Gradient      ...    1.6229e-06  Tolerance :   1.0000e-05
  Last Orbital Rotation      ...    5.4945e-06  Tolerance :   1.0000e-05


Total SCF time: 0 days 0 hours 2 min 13 sec 
Finished LeanSCF after 134.1 sec

Maximum memory used throughout the entire LEANSCF-calculation: 92.4 MB

------------------------------------------------------------------------------
                         ORCA PROPERTY INTEGRAL CALCULATIONS
------------------------------------------------------------------------------

GBWName                                   ... Inputs/Catechin_CPCM.gbw
Number of atoms                           ...     35
Number of basis functions                 ...    322
Max core memory                           ...   4096 MB

Dipole integrals                          ... YES
Quadrupole integrals                      ...  NO
Linear momentum integrals                 ...  NO
Angular momentum integrals                ...  NO
Higher moments length integrals           ...  NO
Higher moments velocity integrals         ...  NO
Kinetic energy integrals                  ...  NO
GIAO right hand sides                     ...  NO
GIAO dipole derivative integrals          ...  NO
SOC integrals                             ...  NO
EPR diamagnetic integrals (GIAO)          ...  NO
EPR gauge integrals                       ...  NO
Field gradient integrals                  ...  NO (   0 nuclei)
Spin-dipole/Fermi contact integrals       ...  NO (   0 nuclei)
Contact density integrals                 ...  NO (   0 nuclei)
Nucleus-orbit integrals                   ...  NO (   0 nuclei)
Geometric perturbations                   ...  NO (  35 nuclei)

Choice of electric origin   ... Center of mass
Position of electric origin ... ( -0.0133, -0.0039,  0.0527) 
Choice of magnetic origin   ... GIAO
Position of magnetic origin ... (  0.0000,  0.0000,  0.0000) 

Calculating integrals                     ... Electric Dipole (Length)     done (  0.1 sec)

Property integrals calculated in   0.1 sec

Maximum memory used throughout the entire PROPINT-calculation: 25.8 MB

-------------------------   --------------------
FINAL SINGLE POINT ENERGY     -1030.778974539245
-------------------------   --------------------

------------------------------------------------------------------------------
                         ORCA SCF GRADIENT CALCULATION
------------------------------------------------------------------------------

Nuc. rep. gradient        (SHARK) ... done (  0.0 sec)
HCore & Overlap gradient  (SHARK) ... done (  1.0 sec)
Split-RIJ-J gradient      (SHARK) ... done (  4.8 sec)
COSX-gradient                     ... done ( 68.1 sec)
XC gradient                       ... done ( 14.9 sec)
CPCM gradient                     ... done (  4.9 sec)

------------------
CARTESIAN GRADIENT
------------------

   1   O   :   -0.000013153   -0.000112615   -0.000014970
   2   O   :   -0.000041050   -0.000018494   -0.000064947
   3   O   :   -0.000021945   -0.000021223   -0.000016711
   4   O   :    0.000022399    0.000017706   -0.000018655
   5   O   :   -0.000018068    0.000011458    0.000068786
   6   O   :   -0.000065830    0.000028023    0.000032466
   7   C   :    0.000026960    0.000003473   -0.000005990
   8   C   :    0.000039831    0.000061678    0.000021280
   9   C   :   -0.000014088   -0.000066200    0.000027264
  10   C   :    0.000085651    0.000060847   -0.000004149
  11   C   :   -0.000000540    0.000053393    0.000017267
  12   C   :   -0.000045140    0.000028061    0.000124836
  13   C   :   -0.000034046   -0.000053602    0.000001306
  14   C   :   -0.000025965   -0.000018896   -0.000019917
  15   C   :    0.000066161   -0.000014422   -0.000044825
  16   C   :   -0.000049770   -0.000014053   -0.000018730
  17   C   :   -0.000005161    0.000021566   -0.000013874
  18   C   :    0.000051431    0.000011927    0.000008721
  19   C   :   -0.000153680   -0.000042256   -0.000142512
  20   C   :    0.000043105   -0.000038239   -0.000054900
  21   C   :    0.000112669    0.000055847    0.000155500
  22   H   :    0.000013606    0.000016210    0.000003059
  23   H   :   -0.000028169    0.000020297   -0.000011573
  24   H   :   -0.000002342   -0.000000623   -0.000006163
  25   H   :   -0.000009485   -0.000004597   -0.000009437
  26   H   :   -0.000010163   -0.000001844   -0.000004343
  27   H   :    0.000035196   -0.000016239   -0.000020150
  28   H   :    0.000007463    0.000024035    0.000024776
  29   H   :   -0.000009026    0.000005311    0.000005458
  30   H   :    0.000004412    0.000004005   -0.000008194
  31   H   :    0.000022296   -0.000009541   -0.000010086
  32   H   :    0.000004869    0.000014138   -0.000002022
  33   H   :   -0.000015221   -0.000004976    0.000000541
  34   H   :    0.000019432    0.000001440   -0.000002122
  35   H   :    0.000007360   -0.000001592    0.000003009

Difference to translation invariance:
           :   -0.0000000001    0.0000000000    0.0000000001

Difference to rotation invariance:
           :    0.0001398429    0.0013534319   -0.0002276746

Norm of the Cartesian gradient     ...    0.0004421265
RMS gradient                       ...    0.0000431471
MAX gradient                       ...    0.0001555003

-------
TIMINGS
-------

Total SCF gradient time     ....       93.705 sec

Densities                   ....       0.002 sec  (  0.0%)
One electron gradient       ....       0.972 sec  (  1.0%)
RI-J Coulomb gradient       ....       4.837 sec  (  5.2%)
COSX gradient               ....      68.058 sec  ( 72.6%)
XC gradient                 ....      14.895 sec  ( 15.9%)
CPCM gradient               ....       4.901 sec  (  5.2%)
   A-Matrix (El+Nuc)        ....       0.176 sec  (  0.2%)
   Potential                ....       4.725 sec  (  5.0%)

Maximum memory used throughout the entire SCFGRAD-calculation: 56.7 MB
------------------------------------------------------------------------------
                         ORCA GEOMETRY RELAXATION STEP
------------------------------------------------------------------------------

Reading the OPT-File                    .... done
Getting information on internals        .... done
Copying old internal coords+grads       .... done
Making the new internal coordinates     .... (2022 redundants) done
Validating the new internal coordinates .... (2022 redundants) done
Calculating the B-matrix                .... done
Calculating the G,G- and P matrices     .... done
Transforming gradient to internals      .... done
Projecting the internal gradient        .... done
Number of atoms                         ....  35
Number of internal coordinates          .... 183
Current Energy                          .... -1030.778974539 Eh
Current gradient norm                   ....     0.000442127 Eh/bohr
Maximum allowed component of the step   ....  0.300
Current trust radius                    ....  0.200
Updating the Hessian (BFGS)             .... done
Forming the augmented Hessian           .... done
Diagonalizing the augmented Hessian     .... done
Last element of RFO vector              ....  0.999989816
Lowest eigenvalues of augmented Hessian:
 -0.000000367  0.002869986  0.006089742  0.014714119  0.019212834
Length of the computed step             ....  0.004513126
The final length of the internal step   ....  0.004513126
Converting the step to Cartesian space:
 Initial RMS(Int)=    0.0003336199
Transforming coordinates:
 Iter   0:  RMS(Cart)=    0.0005982123 RMS(Int)=    0.0003336293
done
Storing new coordinates                 .... done
The predicted energy change is          ....    -0.000000183
Previously predicted energy change      ....    -0.000000801
Actually observed energy change         ....    -0.000005545
Ratio of predicted to observed change   ....     6.919569129
New trust radius                        ....     0.133333333

                                .--------------------.
          ----------------------|Geometry convergence|-------------------------
          Item                value                   Tolerance       Converged
          ---------------------------------------------------------------------
          Energy change      -0.0000055449            0.0000050000      NO
          RMS gradient        0.0000234375            0.0001000000      YES
          MAX gradient        0.0001156295            0.0003000000      YES
          RMS step            0.0003336199            0.0020000000      YES
          MAX step            0.0024237460            0.0040000000      YES
          -------------------------------------------------------------------------
          ........................................................
          Max(Bonds)      0.0001      Max(Angles)    0.01
          Max(Dihed)        0.14      Max(Improp)    0.00
          ---------------------------------------------------------------------

       Everything but the energy has converged. However, the energy
       appears to be close enough to convergence to make sure that the
       final evaluation at the new geometry represents the equilibrium energy.
       Convergence will therefore be signaled now


                    ***********************HURRAY********************
                    ***        THE OPTIMIZATION HAS CONVERGED     ***
                    *************************************************


    ---------------------------------------------------------------------------
                         Redundant Internal Coordinates

                          --- Optimized Parameters ---  
                            (Angstroem and degrees)

        Definition                    OldVal   dE/dq     Step     FinalVal
    ----------------------------------------------------------------------------
     1. B(C   6,O   1)                1.4234  0.000024 -0.0000    1.4234   
     2. B(C   7,O   0)                1.4461 -0.000071  0.0001    1.4462   
     3. B(C   7,C   6)                1.5384 -0.000021  0.0000    1.5384   
     4. B(C   8,C   6)                1.5315  0.000012 -0.0000    1.5314   
     5. B(C   9,C   8)                1.5110  0.000076 -0.0001    1.5110   
     6. B(C  10,C   9)                1.4003  0.000013  0.0000    1.4003   
     7. B(C  10,O   0)                1.3720  0.000010 -0.0000    1.3720   
     8. B(C  11,C   7)                1.5104  0.000031 -0.0001    1.5103   
     9. B(C  12,C   9)                1.4073 -0.000035  0.0000    1.4073   
    10. B(C  12,O   2)                1.3677 -0.000003  0.0000    1.3678   
    11. B(C  13,C  10)                1.4017 -0.000014  0.0000    1.4017   
    12. B(C  14,C  11)                1.4045 -0.000091  0.0001    1.4046   
    13. B(C  15,C  11)                1.3957  0.000019 -0.0000    1.3957   
    14. B(C  16,C  12)                1.3959  0.000053 -0.0000    1.3958   
    15. B(C  17,O   3)                1.3673  0.000015 -0.0000    1.3673   
    16. B(C  17,C  16)                1.4008  0.000013  0.0000    1.4008   
    17. B(C  17,C  13)                1.3952  0.000039 -0.0000    1.3952   
    18. B(C  18,C  14)                1.3931  0.000080 -0.0001    1.3930   
    19. B(C  18,O   4)                1.3686  0.000051 -0.0000    1.3686   
    20. B(C  19,C  15)                1.3992 -0.000047  0.0000    1.3992   
    21. B(C  20,C  19)                1.3943  0.000098 -0.0001    1.3942   
    22. B(C  20,C  18)                1.4117 -0.000116  0.0001    1.4118   
    23. B(C  20,O   5)                1.3676  0.000063 -0.0001    1.3675   
    24. B(H  21,C   6)                1.1013  0.000007  0.0000    1.1013   
    25. B(H  22,C   7)                1.0992  0.000001 -0.0000    1.0992   
    26. B(H  23,C   8)                1.1000  0.000002  0.0000    1.1000   
    27. B(H  24,C   8)                1.0973 -0.000005  0.0000    1.0973   
    28. B(H  25,C  13)                1.0863  0.000004 -0.0000    1.0863   
    29. B(H  26,C  14)                1.0879 -0.000001  0.0000    1.0879   
    30. B(H  27,O   1)                0.9722 -0.000002  0.0000    0.9722   
    31. B(H  28,C  15)                1.0867 -0.000005  0.0000    1.0867   
    32. B(H  29,C  16)                1.0865  0.000004 -0.0000    1.0865   
    33. B(H  30,C  19)                1.0881 -0.000001  0.0000    1.0881   
    34. B(H  31,O   2)                0.9727  0.000007 -0.0000    0.9727   
    35. B(H  32,O   3)                0.9726  0.000005 -0.0000    0.9726   
    36. B(H  33,O   4)                0.9726  0.000006 -0.0000    0.9726   
    37. B(H  34,O   5)                0.9729  0.000003  0.0000    0.9729   
    38. A(C   7,O   0,C  10)          117.84  0.000058   -0.01    117.83   
    39. A(C   6,O   1,H  27)          107.27 -0.000054    0.01    107.28   
    40. A(C  12,O   2,H  31)          109.22 -0.000027    0.01    109.22   
    41. A(C  17,O   3,H  32)          109.29 -0.000028    0.00    109.30   
    42. A(C  18,O   4,H  33)          108.84 -0.000027    0.00    108.84   
    43. A(C  20,O   5,H  34)          108.82 -0.000021    0.00    108.82   
    44. A(O   1,C   6,C   8)          111.74  0.000010    0.00    111.74   
    45. A(C   8,C   6,H  21)          109.83 -0.000017    0.00    109.83   
    46. A(C   7,C   6,C   8)          109.46  0.000036   -0.01    109.45   
    47. A(O   1,C   6,C   7)          107.28 -0.000032   -0.00    107.28   
    48. A(C   7,C   6,H  21)          107.80 -0.000015    0.00    107.80   
    49. A(O   1,C   6,H  21)          110.61  0.000017    0.00    110.61   
    50. A(C   6,C   7,C  11)          114.16 -0.000020    0.01    114.17   
    51. A(C  11,C   7,H  22)          109.31 -0.000022    0.01    109.31   
    52. A(C   6,C   7,H  22)          108.07  0.000026   -0.01    108.06   
    53. A(O   0,C   7,C  11)          107.47  0.000034   -0.00    107.46   
    54. A(O   0,C   7,H  22)          108.55  0.000004    0.00    108.55   
    55. A(O   0,C   7,C   6)          109.17 -0.000021   -0.00    109.16   
    56. A(C   6,C   8,C   9)          110.98 -0.000014   -0.00    110.98   
    57. A(C   9,C   8,H  24)          110.44  0.000020   -0.00    110.44   
    58. A(C   6,C   8,H  24)          109.75 -0.000002    0.00    109.75   
    59. A(C   9,C   8,H  23)          111.12  0.000001    0.00    111.13   
    60. A(C   6,C   8,H  23)          107.95 -0.000000    0.00    107.95   
    61. A(H  23,C   8,H  24)          106.47 -0.000004   -0.00    106.47   
    62. A(C   8,C   9,C  10)          120.92 -0.000024    0.00    120.92   
    63. A(C  10,C   9,C  12)          117.15  0.000014   -0.00    117.15   
    64. A(C   8,C   9,C  12)          121.92  0.000010   -0.00    121.92   
    65. A(C   9,C  10,C  13)          122.19  0.000005    0.00    122.19   
    66. A(O   0,C  10,C  13)          115.64  0.000012    0.00    115.64   
    67. A(O   0,C  10,C   9)          122.16 -0.000017   -0.00    122.16   
    68. A(C  14,C  11,C  15)          118.93  0.000006   -0.00    118.93   
    69. A(C   7,C  11,C  15)          120.49 -0.000019    0.00    120.49   
    70. A(C   7,C  11,C  14)          120.57  0.000013   -0.00    120.57   
    71. A(O   2,C  12,C   9)          116.29 -0.000003   -0.00    116.29   
    72. A(C   9,C  12,C  16)          122.06 -0.000013    0.00    122.06   
    73. A(O   2,C  12,C  16)          121.65  0.000016    0.00    121.65   
    74. A(C  17,C  13,H  25)          121.41  0.000008   -0.00    121.41   
    75. A(C  10,C  13,H  25)          119.71 -0.000013    0.00    119.71   
    76. A(C  10,C  13,C  17)          118.88  0.000005   -0.00    118.88   
    77. A(C  11,C  14,C  18)          121.04  0.000005    0.00    121.05   
    78. A(C  11,C  14,H  26)          120.14 -0.000046    0.01    120.15   
    79. A(C  18,C  14,H  26)          118.81  0.000042   -0.01    118.81   
    80. A(C  11,C  15,C  19)          120.41 -0.000002   -0.00    120.41   
    81. A(C  19,C  15,H  28)          119.53 -0.000003    0.00    119.53   
    82. A(C  11,C  15,H  28)          120.06  0.000005   -0.00    120.06   
    83. A(C  17,C  16,H  29)          120.04 -0.000011    0.00    120.05   
    84. A(C  12,C  16,H  29)          120.97  0.000000   -0.00    120.97   
    85. A(C  12,C  16,C  17)          118.99  0.000011   -0.00    118.99   
    86. A(C  13,C  17,C  16)          120.72 -0.000022    0.00    120.72   
    87. A(O   3,C  17,C  16)          116.95  0.000030   -0.01    116.95   
    88. A(O   3,C  17,C  13)          122.33 -0.000009    0.00    122.33   
    89. A(C  14,C  18,C  20)          119.69  0.000005   -0.00    119.68   
    90. A(O   4,C  18,C  20)          116.93  0.000031   -0.01    116.92   
    91. A(O   4,C  18,C  14)          123.39 -0.000036    0.01    123.40   
    92. A(C  20,C  19,H  30)          119.01  0.000037   -0.01    119.00   
    93. A(C  15,C  19,H  30)          120.33 -0.000032    0.01    120.34   
    94. A(C  15,C  19,C  20)          120.66 -0.000005    0.00    120.66   
    95. A(O   5,C  20,C  18)          117.11  0.000004   -0.00    117.11   
    96. A(C  18,C  20,C  19)          119.27 -0.000009   -0.00    119.27   
    97. A(O   5,C  20,C  19)          123.62  0.000005    0.00    123.62   
    98. D(C   8,C   6,O   1,H  27)     57.11  0.000002   -0.13     56.98   
    99. D(H  21,C   6,O   1,H  27)    -65.58  0.000004   -0.13    -65.71   
   100. D(C   7,C   6,O   1,H  27)    177.10  0.000031   -0.14    176.96   
   101. D(O   0,C   7,C   6,O   1)    176.55  0.000003   -0.02    176.54   
   102. D(C  11,C   7,O   0,C  10)    171.49 -0.000020    0.02    171.51   
   103. D(H  22,C   7,O   0,C  10)    -70.40 -0.000026    0.03    -70.37   
   104. D(C  11,C   7,C   6,O   1)     56.27 -0.000011   -0.02     56.26   
   105. D(O   0,C   7,C   6,C   8)    -62.02  0.000017   -0.02    -62.04   
   106. D(C  11,C   7,C   6,H  21)    -62.87 -0.000006   -0.02    -62.89   
   107. D(C  11,C   7,C   6,C   8)    177.70  0.000002   -0.02    177.68   
   108. D(C   6,C   7,O   0,C  10)     47.19 -0.000004    0.01     47.20   
   109. D(O   0,C   7,C   6,H  21)     57.40  0.000008   -0.02     57.38   
   110. D(C   9,C   8,C   6,H  21)    -72.30  0.000001    0.01    -72.29   
   111. D(C   9,C   8,C   6,O   1)    164.56 -0.000016    0.01    164.57   
   112. D(C   9,C   8,C   6,C   7)     45.87 -0.000006    0.01     45.88   
   113. D(H  23,C   8,C   6,O   1)     42.57 -0.000008    0.00     42.57   
   114. D(H  23,C   8,C   6,C   7)    -76.13  0.000002    0.01    -76.12   
   115. D(H  23,C   8,C   6,H  21)    165.70  0.000009    0.01    165.71   
   116. D(C  12,C   9,C   8,C   6)    163.14  0.000009   -0.01    163.14   
   117. D(C  10,C   9,C   8,H  23)    104.21 -0.000002    0.00    104.22   
   118. D(C  10,C   9,C   8,H  24)   -137.86  0.000005    0.00   -137.85   
   119. D(C  12,C   9,C   8,H  23)    -76.73 -0.000000   -0.01    -76.74   
   120. D(C  10,C   9,C   8,C   6)    -15.91  0.000007    0.00    -15.91   
   121. D(C  13,C  10,C   9,C  12)     -0.84  0.000006   -0.01     -0.86   
   122. D(C  13,C  10,C   9,C   8)    178.26  0.000008   -0.02    178.24   
   123. D(O   0,C  10,C   9,C  12)   -179.66  0.000007   -0.01   -179.67   
   124. D(O   0,C  10,C   9,C   8)     -0.56  0.000009   -0.02     -0.57   
   125. D(C  13,C  10,O   0,C   7)    164.97 -0.000016    0.01    164.99   
   126. D(C   9,C  10,O   0,C   7)    -16.14 -0.000017    0.01    -16.13   
   127. D(C  14,C  11,C   7,C   6)     70.80 -0.000001   -0.02     70.78   
   128. D(C  14,C  11,C   7,O   0)    -50.42  0.000015   -0.02    -50.44   
   129. D(C  15,C  11,C   7,C   6)   -107.95 -0.000003   -0.02   -107.97   
   130. D(C  15,C  11,C   7,O   0)    130.83  0.000013   -0.02    130.81   
   131. D(C  14,C  11,C   7,H  22)   -168.04  0.000002   -0.02   -168.06   
   132. D(C  16,C  12,C   9,C  10)      0.78 -0.000006    0.01      0.80   
   133. D(C  16,C  12,C   9,C   8)   -178.31 -0.000007    0.02   -178.29   
   134. D(O   2,C  12,C   9,C  10)   -179.47 -0.000003    0.01   -179.46   
   135. D(O   2,C  12,C   9,C   8)      1.44 -0.000005    0.01      1.46   
   136. D(C  16,C  12,O   2,H  31)      1.62  0.000008   -0.02      1.60   
   137. D(C   9,C  12,O   2,H  31)   -178.13  0.000005   -0.02   -178.14   
   138. D(H  25,C  13,C  10,C   9)   -179.96 -0.000003    0.01   -179.95   
   139. D(C  17,C  13,C  10,O   0)    179.12 -0.000004    0.00    179.12   
   140. D(C  17,C  13,C  10,C   9)      0.23 -0.000003    0.01      0.23   
   141. D(H  25,C  13,C  10,O   0)     -1.07 -0.000004    0.00     -1.07   
   142. D(H  26,C  14,C  11,C  15)   -179.12 -0.000002    0.00   -179.12   
   143. D(H  26,C  14,C  11,C   7)      2.11 -0.000003    0.01      2.11   
   144. D(C  18,C  14,C  11,C  15)      0.14  0.000001   -0.00      0.13   
   145. D(C  18,C  14,C  11,C   7)   -178.63 -0.000000    0.00   -178.63   
   146. D(H  28,C  15,C  11,C  14)    179.61 -0.000001    0.00    179.61   
   147. D(H  28,C  15,C  11,C   7)     -1.62  0.000001   -0.00     -1.62   
   148. D(C  19,C  15,C  11,C  14)     -0.52  0.000003   -0.01     -0.53   
   149. D(C  19,C  15,C  11,C   7)    178.25  0.000005   -0.01    178.24   
   150. D(H  29,C  16,C  12,C   9)    179.78  0.000003   -0.00    179.78   
   151. D(H  29,C  16,C  12,O   2)      0.05  0.000000    0.00      0.05   
   152. D(C  17,C  16,C  12,C   9)     -0.11  0.000002   -0.00     -0.11   
   153. D(C  17,C  16,C  12,O   2)   -179.85 -0.000001    0.00   -179.84   
   154. D(C  16,C  17,C  13,H  25)   -179.33 -0.000001    0.00   -179.32   
   155. D(C  16,C  17,C  13,C  10)      0.49 -0.000001    0.00      0.49   
   156. D(O   3,C  17,C  13,H  25)      0.23 -0.000003    0.00      0.23   
   157. D(O   3,C  17,C  13,C  10)   -179.96 -0.000003    0.01   -179.95   
   158. D(C  16,C  17,O   3,H  32)   -179.77  0.000005   -0.01   -179.78   
   159. D(O   3,C  17,C  16,C  12)    179.88  0.000003   -0.01    179.87   
   160. D(C  13,C  17,O   3,H  32)      0.66  0.000006   -0.01      0.64   
   161. D(C  13,C  17,C  16,H  29)    179.56  0.000001   -0.00    179.56   
   162. D(C  13,C  17,C  16,C  12)     -0.54  0.000002   -0.00     -0.55   
   163. D(O   3,C  17,C  16,H  29)     -0.01  0.000003   -0.00     -0.02   
   164. D(C  20,C  18,C  14,H  26)    179.59 -0.000003    0.01    179.60   
   165. D(C  20,C  18,C  14,C  11)      0.33 -0.000006    0.01      0.34   
   166. D(O   4,C  18,C  14,H  26)     -0.37 -0.000002    0.01     -0.37   
   167. D(O   4,C  18,C  14,C  11)   -179.64 -0.000005    0.01   -179.63   
   168. D(C  20,C  18,O   4,H  33)   -179.16  0.000007   -0.01   -179.17   
   169. D(C  14,C  18,O   4,H  33)      0.80  0.000006   -0.00      0.80   
   170. D(H  30,C  19,C  15,H  28)     -0.12  0.000001   -0.00     -0.12   
   171. D(H  30,C  19,C  15,C  11)   -179.99 -0.000003    0.01   -179.98   
   172. D(C  20,C  19,C  15,H  28)   -179.69  0.000002   -0.00   -179.69   
   173. D(C  20,C  19,C  15,C  11)      0.44 -0.000002    0.01      0.45   
   174. D(C  18,C  20,C  19,H  30)   -179.55 -0.000001    0.00   -179.55   
   175. D(C  18,C  20,C  19,C  15)      0.02 -0.000002    0.00      0.03   
   176. D(O   5,C  20,C  19,H  30)      0.15 -0.000001    0.00      0.15   
   177. D(O   5,C  20,C  19,C  15)    179.72 -0.000002    0.00    179.72   
   178. D(C  19,C  20,C  18,C  14)     -0.41  0.000006   -0.02     -0.42   
   179. D(C  19,C  20,C  18,O   4)    179.56  0.000005   -0.01    179.55   
   180. D(O   5,C  20,C  18,C  14)    179.88  0.000006   -0.02    179.87   
   181. D(O   5,C  20,C  18,O   4)     -0.15  0.000005   -0.01     -0.17   
   182. D(C  19,C  20,O   5,H  34)      0.23 -0.000001    0.01      0.23   
   183. D(C  18,C  20,O   5,H  34)    179.93 -0.000001    0.00    179.93   
    ----------------------------------------------------------------------------

Geometry step timings:
Preparation and reading OPT file:      0.004 s ( 3.546 %)
Internal coordinates            :      0.002 s ( 1.522 %)
B/P matrices and projection     :      0.006 s ( 5.856 %)
Hessian update/contruction      :      0.026 s (23.746 %)
Making the step                 :      0.005 s ( 4.985 %)
Converting the step to Cartesian:      0.001 s ( 1.138 %)
Storing new data                :      0.003 s ( 2.725 %)
Checking convergence            :      0.005 s ( 4.177 %)
Final printing                  :      0.057 s (52.301 %)
Total time                      :      0.110 s
                 *******************************************************
                 *** FINAL ENERGY EVALUATION AT THE STATIONARY POINT ***
                 ***               (AFTER   10 CYCLES)               ***
                 *******************************************************
---------------------------------
CARTESIAN COORDINATES (ANGSTROEM)
---------------------------------
  O      0.428106    0.649944   -0.237955
  O     -0.720522   -2.812363   -0.020612
  O      4.391482   -1.977377    0.270195
  O      4.680870    2.782110    0.072984
  O     -4.163499    1.337192    1.962602
  O     -5.852300    0.747725    0.001242
  C      0.109026   -1.701078    0.300358
  C     -0.335647   -0.527015   -0.588725
  C      1.587947   -2.004095    0.043085
  C      2.404807   -0.733145    0.022208
  C      1.787604    0.516761   -0.110232
  C     -1.798273   -0.173190   -0.459943
  C      3.805932   -0.746830    0.153459
  C      2.515754    1.714405   -0.096472
  C     -2.286027    0.434372    0.708703
  C     -2.691751   -0.468648   -1.490600
  C      4.560065    0.427600    0.169721
  C      3.902206    1.658485    0.049292
  C     -3.637955    0.739254    0.849364
  C     -4.052677   -0.173402   -1.354474
  C     -4.537050    0.428029   -0.193697
  H     -0.033714   -1.401170    1.350394
  H     -0.115440   -0.788217   -1.633433
  H      1.662612   -2.539164   -0.915117
  H      1.965276   -2.689568    0.812415
  H      1.995371    2.662120   -0.201633
  H     -1.604789    0.686416    1.518642
  H     -0.407946   -3.567550    0.505789
  H     -2.333280   -0.932937   -2.405425
  H      5.640972    0.396517    0.275592
  H     -4.748316   -0.404564   -2.158654
  H      5.351046   -1.865955    0.383909
  H      4.114239    3.567749   -0.014605
  H     -3.445194    1.509786    2.595165
  H     -6.359433    0.483803   -0.785943

----------------------------
CARTESIAN COORDINATES (A.U.)
----------------------------
  NO LB      ZA    FRAG     MASS         X           Y           Z
   0 O     8.0000    0    15.999    0.809003    1.228216   -0.449670
   1 O     8.0000    0    15.999   -1.361590   -5.314597   -0.038952
   2 O     8.0000    0    15.999    8.298698   -3.736700    0.510595
   3 O     8.0000    0    15.999    8.845562    5.257425    0.137920
   4 O     8.0000    0    15.999   -7.867873    2.526928    3.708780
   5 O     8.0000    0    15.999  -11.059243    1.412996    0.002348
   6 C     6.0000    0    12.011    0.206030   -3.214571    0.567594
   7 C     6.0000    0    12.011   -0.634280   -0.995913   -1.112529
   8 C     6.0000    0    12.011    3.000785   -3.787191    0.081418
   9 C     6.0000    0    12.011    4.544427   -1.385443    0.041967
  10 C     6.0000    0    12.011    3.378082    0.976537   -0.208308
  11 C     6.0000    0    12.011   -3.398244   -0.327281   -0.869166
  12 C     6.0000    0    12.011    7.192169   -1.411303    0.289996
  13 C     6.0000    0    12.011    4.754086    3.239755   -0.182306
  14 C     6.0000    0    12.011   -4.319966    0.820844    1.339255
  15 C     6.0000    0    12.011   -5.086673   -0.885617   -2.816825
  16 C     6.0000    0    12.011    8.617273    0.808046    0.320727
  17 C     6.0000    0    12.011    7.374100    3.134082    0.093148
  18 C     6.0000    0    12.011   -6.874738    1.396988    1.605066
  19 C     6.0000    0    12.011   -7.658450   -0.327681   -2.559584
  20 C     6.0000    0    12.011   -8.573782    0.808858   -0.366034
  21 H     1.0000    0     1.008   -0.063711   -2.647828    2.551875
  22 H     1.0000    0     1.008   -0.218151   -1.489514   -3.086741
  23 H     1.0000    0     1.008    3.141882   -4.798324   -1.729320
  24 H     1.0000    0     1.008    3.713834   -5.082547    1.535241
  25 H     1.0000    0     1.008    3.770706    5.030679   -0.381031
  26 H     1.0000    0     1.008   -3.032613    1.297139    2.869817
  27 H     1.0000    0     1.008   -0.770907   -6.741693    0.955803
  28 H     1.0000    0     1.008   -4.409261   -1.762996   -4.545594
  29 H     1.0000    0     1.008   10.659892    0.749309    0.520793
  30 H     1.0000    0     1.008   -8.973017   -0.764515   -4.079266
  31 H     1.0000    0     1.008   10.112011   -3.526145    0.725483
  32 H     1.0000    0     1.008    7.774785    6.742068   -0.027599
  33 H     1.0000    0     1.008   -6.510474    2.853081    4.904151
  34 H     1.0000    0     1.008  -12.017587    0.914256   -1.485218

--------------------------------
INTERNAL COORDINATES (ANGSTROEM)
--------------------------------
 O      0   0   0     0.000000000000     0.00000000     0.00000000
 O      1   0   0     3.654333902647     0.00000000     0.00000000
 O      1   2   0     4.782194196644    74.55305856     0.00000000
 O      1   2   3     4.767474963315   134.44595356   356.76765870
 O      1   2   3     5.137859051881    79.65110965   210.56039204
 O      5   1   2     2.654515091933   102.84961488   289.90064955
 C      2   1   3     1.423421479261    24.56927116    36.95329954
 C      1   2   3     1.446232586355    22.68896785   134.82132703
 C      7   2   1     1.531409790837   111.74331489   236.91219582
 C      9   7   2     1.510963812327   110.97593854   164.57021807
 C      1   2   3     1.371964703575   102.35409929   359.16214665
 C      8   1   2     1.510315499795   107.46293534   120.97328025
 C      3   1   2     1.367750926483    30.88903823   182.51925219
 C     11   1   2     1.401692533408   115.64089825   182.73701218
 C     12   8   1     1.404552687330   120.56972845   309.55712401
 C     12   8   1     1.395654938335   120.49129278   130.80924723
 C     13   3   1     1.395802508544   121.64802636   179.88579187
 C      4   1   2     1.367264638559    28.75471972     3.72572759
 C      5   1   2     1.368585203735    41.40877742   305.68998665
 C     16  12   8     1.399221220673   120.40771685   178.23994187
 C      6   5   1     1.367511648003    62.95790254    11.56359270
 H      7   2   1     1.101315255435   110.61339128   114.21464612
 H      8   1   2     1.099150558058   108.54931666   239.09023903
 H      9   7   2     1.100010437381   107.94702956    42.56998311
 H      9   7   2     1.097323473557   109.74889152   286.91650179
 H     14  11   1     1.086288133253   119.71111387   358.93318352
 H     15  12   8     1.087939337173   120.14527145     2.11485099
 H      2   1   3     0.972167223848   131.84600899    37.04625863
 H     16  12   8     1.086724382104   120.06181979   358.37963229
 H     17  13   3     1.086524256069   120.96793244     0.04573914
 H     20  16  12     1.088143514839   120.33585927   180.02023795
 H      3   1   2     0.972681242847   140.09328805   185.04493651
 H      4   1   2     0.972610427805    80.54308710   183.86427022
 H      5   1   2     0.972566576736    69.03887898   108.88509200
 H      6   5   1     0.972882648135   171.77619402    10.56147553

---------------------------
INTERNAL COORDINATES (A.U.)
---------------------------
 O      0   0   0     0.000000000000     0.00000000     0.00000000
 O      1   0   0     6.905690277906     0.00000000     0.00000000
 O      1   2   0     9.037037350884    74.55305856     0.00000000
 O      1   2   3     9.009222030992   134.44595356   356.76765870
 O      1   2   3     9.709146522743    79.65110965   210.56039204
 O      5   1   2     5.016306542114   102.84961488   289.90064955
 C      2   1   3     2.689876768945    24.56927116    36.95329954
 C      1   2   3     2.732983514164    22.68896785   134.82132703
 C      7   2   1     2.893945103488   111.74331489   236.91219582
 C      9   7   2     2.855307803564   110.97593854   164.57021807
 C      1   2   3     2.592637555163   102.35409929   359.16214665
 C      8   1   2     2.854082670429   107.46293534   120.97328025
 C      3   1   2     2.584674670470    30.88903823   182.51925219
 C     11   1   2     2.648815012103   115.64089825   182.73701218
 C     12   8   1     2.654219919717   120.56972845   309.55712401
 C     12   8   1     2.637405610907   120.49129278   130.80924723
 C     13   3   1     2.637684478188   121.64802636   179.88579187
 C      4   1   2     2.583755719472    28.75471972     3.72572759
 C      5   1   2     2.586251225997    41.40877742   305.68998665
 C     16  12   8     2.644144907843   120.40771685   178.23994187
 C      6   5   1     2.584222499674    62.95790254    11.56359270
 H      7   2   1     2.081184219882   110.61339128   114.21464612
 H      8   1   2     2.077093534677   108.54931666   239.09023903
 H      9   7   2     2.078718471106   107.94702956    42.56998311
 H      9   7   2     2.073640845347   109.74889152   286.91650179
 H     14  11   1     2.052787074377   119.71111387   358.93318352
 H     15  12   8     2.055907397577   120.14527145     2.11485099
 H      2   1   3     1.837129809448   131.84600899    37.04625863
 H     16  12   8     2.053611465231   120.06181979   358.37963229
 H     17  13   3     2.053233281832   120.96793244     0.04573914
 H     20  16  12     2.056293237448   120.33585927   180.02023795
 H      3   1   2     1.838101164582   140.09328805   185.04493651
 H      4   1   2     1.837967343548    80.54308710   183.86427022
 H      5   1   2     1.837884477036    69.03887898   108.88509200
 H      6   5   1     1.838481765420   171.77619402    10.56147553

---------------------
BASIS SET INFORMATION
---------------------
There are 3 groups of distinct atoms

 Group   1 Type O   : 10s4p1d contracted to 3s2p1d pattern {631/31/1}
 Group   2 Type C   : 10s4p1d contracted to 3s2p1d pattern {631/31/1}
 Group   3 Type H   : 4s contracted to 2s pattern {31}

Atom   0O    basis set group =>   1
Atom   1O    basis set group =>   1
Atom   2O    basis set group =>   1
Atom   3O    basis set group =>   1
Atom   4O    basis set group =>   1
Atom   5O    basis set group =>   1
Atom   6C    basis set group =>   2
Atom   7C    basis set group =>   2
Atom   8C    basis set group =>   2
Atom   9C    basis set group =>   2
Atom  10C    basis set group =>   2
Atom  11C    basis set group =>   2
Atom  12C    basis set group =>   2
Atom  13C    basis set group =>   2
Atom  14C    basis set group =>   2
Atom  15C    basis set group =>   2
Atom  16C    basis set group =>   2
Atom  17C    basis set group =>   2
Atom  18C    basis set group =>   2
Atom  19C    basis set group =>   2
Atom  20C    basis set group =>   2
Atom  21H    basis set group =>   3
Atom  22H    basis set group =>   3
Atom  23H    basis set group =>   3
Atom  24H    basis set group =>   3
Atom  25H    basis set group =>   3
Atom  26H    basis set group =>   3
Atom  27H    basis set group =>   3
Atom  28H    basis set group =>   3
Atom  29H    basis set group =>   3
Atom  30H    basis set group =>   3
Atom  31H    basis set group =>   3
Atom  32H    basis set group =>   3
Atom  33H    basis set group =>   3
Atom  34H    basis set group =>   3
---------------------------------
AUXILIARY/J BASIS SET INFORMATION
---------------------------------
There are 3 groups of distinct atoms

 Group   1 Type O   : 12s5p4d2f1g contracted to 6s4p3d1f1g pattern {711111/2111/211/2/1}
 Group   2 Type C   : 12s5p4d2f1g contracted to 6s4p3d1f1g pattern {711111/2111/211/2/1}
 Group   3 Type H   : 5s2p1d contracted to 3s1p1d pattern {311/2/1}

Atom   0O    basis set group =>   1
Atom   1O    basis set group =>   1
Atom   2O    basis set group =>   1
Atom   3O    basis set group =>   1
Atom   4O    basis set group =>   1
Atom   5O    basis set group =>   1
Atom   6C    basis set group =>   2
Atom   7C    basis set group =>   2
Atom   8C    basis set group =>   2
Atom   9C    basis set group =>   2
Atom  10C    basis set group =>   2
Atom  11C    basis set group =>   2
Atom  12C    basis set group =>   2
Atom  13C    basis set group =>   2
Atom  14C    basis set group =>   2
Atom  15C    basis set group =>   2
Atom  16C    basis set group =>   2
Atom  17C    basis set group =>   2
Atom  18C    basis set group =>   2
Atom  19C    basis set group =>   2
Atom  20C    basis set group =>   2
Atom  21H    basis set group =>   3
Atom  22H    basis set group =>   3
Atom  23H    basis set group =>   3
Atom  24H    basis set group =>   3
Atom  25H    basis set group =>   3
Atom  26H    basis set group =>   3
Atom  27H    basis set group =>   3
Atom  28H    basis set group =>   3
Atom  29H    basis set group =>   3
Atom  30H    basis set group =>   3
Atom  31H    basis set group =>   3
Atom  32H    basis set group =>   3
Atom  33H    basis set group =>   3
Atom  34H    basis set group =>   3
------------------------------------------------------------------------------
                             ORCA STARTUP CALCULATIONS
                           -- RI-GTO INTEGRALS CHOSEN --
------------------------------------------------------------------------------
------------------------------------------------------------------------------
                   ___                                                        
                  /   \      - P O W E R E D   B Y -                         
                 /     \                                                     
                 |  |  |   _    _      __       _____    __    __             
                 |  |  |  | |  | |    /  \     |  _  \  |  |  /  |          
                  \  \/   | |  | |   /    \    | | | |  |  | /  /          
                 / \  \   | |__| |  /  /\  \   | |_| |  |  |/  /          
                |  |  |   |  __  | /  /__\  \  |    /   |      \           
                |  |  |   | |  | | |   __   |  |    \   |  |\   \          
                \     /   | |  | | |  |  |  |  | |\  \  |  | \   \       
                 \___/    |_|  |_| |__|  |__|  |_| \__\ |__|  \__/        
                                                                              
                      - O R C A' S   B I G   F R I E N D -                    
                                      &                                       
                       - I N T E G R A L  F E E D E R -                       
                                                                              
 v1 FN, 2020, v2 2021, v3 2022-2024                                           
------------------------------------------------------------------------------


----------------------
SHARK INTEGRAL PACKAGE
----------------------

Number of atoms                             ...     35
Number of basis functions                   ...    322
Number of shells                            ...    154
Maximum angular momentum                    ...      2
Integral batch strategy                     ... SHARK/LIBINT Hybrid
RI-J (if used) integral strategy            ... SPLIT-RIJ (Revised 2003 algorithm where possible)
Printlevel                                  ...      1
Contraction scheme used                     ... SEGMENTED contraction
Prescreening option                         ... SCHWARTZ
   Thresh                                   ... 2.500e-11
   Tcut                                     ... 2.500e-12
   Tpresel                                  ... 2.500e-12 
Coulomb Range Separation                    ... NOT USED
Exchange Range Separation                   ... NOT USED
Multipole approximations                    ... NOT USED
Finite Nucleus Model                        ... NOT USED
CABS basis                                  ... NOT available
Auxiliary Coulomb fitting basis             ... AVAILABLE
   # of basis functions in Aux-J            ...   1183
   # of shells in Aux-J                     ...    385
   Maximum angular momentum in Aux-J        ...      4
Auxiliary J/K fitting basis                 ... NOT available
Auxiliary Correlation fitting basis         ... NOT available
Auxiliary 'external' fitting basis          ... NOT available

Checking pre-screening integrals            ... done (  0.0 sec) Dimension = 154
   => SHARK Basis and OBASIS are compatible. Storing Pre-screening
Shell pair information
Shell pair cut-off parameter TPreSel        ...   2.5e-12
Total number of shell pairs                 ...     11935
Shell pairs after pre-screening             ...      8445
Total number of primitive shell pairs       ...     69489
Primitive shell pairs kept                  ...     27526
          la=0 lb=0:   2814 shell pairs
          la=1 lb=0:   2888 shell pairs
          la=1 lb=1:    743 shell pairs
          la=2 lb=0:   1208 shell pairs
          la=2 lb=1:    650 shell pairs
          la=2 lb=2:    142 shell pairs

Checking whether 4 symmetric matrices of dimension 322 fit in memory
:Max Core in MB      =   4096.00
 MB in use           =     15.93
 MB left             =   4080.07
 MB needed           =      1.59
 Data fit in memory  = YES
Calculating RI/J V-Matrix + Cholesky decomp.... done (  0.3 sec)
Calculating Nuclear repulsion               ... done (  0.0 sec) ENN=   1636.648035088153 Eh

Diagonalization of the overlap matrix:
Smallest eigenvalue                        ... 4.024e-04
Time for diagonalization                   ...    0.009 sec
Threshold for overlap eigenvalues          ... 1.000e-07
Number of eigenvalues below threshold      ... 0
Time for construction of square roots      ...    0.025 sec
Total time needed                          ...    0.055 sec

-------------------
DFT GRID GENERATION
-------------------

General Integration Accuracy     IntAcc      ... 4.388
Radial Grid Type                 RadialGrid  ... OptM3 with GC (2021)
Angular Grid (max. ang.)         AngularGrid ... 4 (Lebedev-302)
Angular grid pruning method      GridPruning ... 4 (adaptive)
Weight generation scheme         WeightScheme... mBecke (2022)
Basis function cutoff            BFCut       ... 1.0000e-11
Integration weight cutoff        WCut        ... 1.0000e-14
Partially contracted basis set               ... off
Rotationally invariant grid construction     ... off
Angular grids for H and He will be reduced by one unit

Total number of grid points                  ...   170394
Total number of batches                      ...     2679
Average number of points per batch           ...       63
Average number of grid points per atom       ...     4868

--------------------
COSX GRID GENERATION
--------------------

GRIDX 1
-------
General Integration Accuracy     IntAcc      ... 3.816
Radial Grid Type                 RadialGrid  ... OptM3 with GC (2021)
Angular Grid (max. ang.)         AngularGrid ... 1 (Lebedev-50)
Angular grid pruning method      GridPruning ... 4 (adaptive)
Weight generation scheme         WeightScheme... mBecke (2022)
Basis function cutoff            BFCut       ... 1.0000e-11
Integration weight cutoff        WCut        ... 1.0000e-14
Partially contracted basis set               ... on
Rotationally invariant grid construction     ... off
Angular grids for H and He will be reduced by one unit

Total number of grid points                  ...    21680
Total number of batches                      ...      191
Average number of points per batch           ...      113
Average number of grid points per atom       ...      619
UseSFitting                                  ... on

GRIDX 2
-------
General Integration Accuracy     IntAcc      ... 4.020
Radial Grid Type                 RadialGrid  ... OptM3 with GC (2021)
Angular Grid (max. ang.)         AngularGrid ... 2 (Lebedev-110)
Angular grid pruning method      GridPruning ... 4 (adaptive)
Weight generation scheme         WeightScheme... mBecke (2022)
Basis function cutoff            BFCut       ... 1.0000e-11
Integration weight cutoff        WCut        ... 1.0000e-14
Partially contracted basis set               ... on
Rotationally invariant grid construction     ... off
Angular grids for H and He will be reduced by one unit

Total number of grid points                  ...    47474
Total number of batches                      ...      389
Average number of points per batch           ...      122
Average number of grid points per atom       ...     1356
UseSFitting                                  ... on

GRIDX 3
-------
General Integration Accuracy     IntAcc      ... 4.338
Radial Grid Type                 RadialGrid  ... OptM3 with GC (2021)
Angular Grid (max. ang.)         AngularGrid ... 3 (Lebedev-194)
Angular grid pruning method      GridPruning ... 4 (adaptive)
Weight generation scheme         WeightScheme... mBecke (2022)
Basis function cutoff            BFCut       ... 1.0000e-11
Integration weight cutoff        WCut        ... 1.0000e-14
Partially contracted basis set               ... on
Rotationally invariant grid construction     ... off
Angular grids for H and He will be reduced by one unit

Total number of grid points                  ...   104090
Total number of batches                      ...      832
Average number of points per batch           ...      125
Average number of grid points per atom       ...     2974
UseSFitting                                  ... on
Grids setup in   6.0 sec
Initializing property integral containers    ... done (  0.0 sec)

SHARK setup successfully completed in   7.1 seconds

Maximum memory used throughout the entire STARTUP-calculation: 72.9 MB
-------------------------------------------------------------------------------
                                 ORCA GUESS
                   Start orbitals & Density for SCF / CASSCF
-------------------------------------------------------------------------------

------------
SCF SETTINGS
------------
Hamiltonian:
 Density Functional     Method          .... DFT(GTOs)
 Exchange Functional    Exchange        .... B88
   X-Alpha parameter    XAlpha          ....  0.666667
   Becke's b parameter  XBeta           ....  0.004200
 Correlation Functional Correlation     .... LYP
 LDA part of GGA corr.  LDAOpt          .... VWN-5
 Gradients option       PostSCFGGA      .... off
 Hybrid DFT is turned on
   Fraction HF Exchange ScalHFX         ....  0.200000
   Scaling of DF-GGA-X  ScalDFX         ....  0.720000
   Scaling of DF-GGA-C  ScalDFC         ....  0.810000
   Scaling of DF-LDA-C  ScalLDAC        ....  1.000000
   Perturbative correction              ....  0.000000
   NL short-range parameter             ....  4.800000
 RI-approximation to the Coulomb term is turned on
   Number of AuxJ basis functions       .... 1183
   RIJ-COSX (HFX calculated with COS-X)).... on


General Settings:
 Integral files         IntName         .... Inputs/Catechin_CPCM
 Hartree-Fock type      HFTyp           .... RHF
 Total Charge           Charge          ....    0
 Multiplicity           Mult            ....    1
 Number of Electrons    NEL             ....  152
 Basis Dimension        Dim             ....  322
 Nuclear Repulsion      ENuc            ....   1636.6480350882 Eh

Convergence Acceleration:
 AO-DIIS                CNVDIIS         .... on
   Start iteration      DIISMaxIt       ....    12
   Startup error        DIISStart       ....  0.200000
   # of expansion vecs  DIISMaxEq       ....     5
   Bias factor          DIISBfac        ....   1.050
   Max. coefficient     DIISMaxC        ....  10.000
 MO-DIIS                CNVKDIIS        .... off
 Trust-Rad. Augm. Hess. CNVTRAH         .... auto
   Auto Start mean grad. ratio tolernc. ....  1.125000
   Auto Start start iteration           ....     1
   Auto Start num. interpolation iter.  ....    10
   Max. Number of Micro iterations      ....    24
   Max. Number of Macro iterations      .... Maxiter - #DIIS iter
   Number of Davidson start vectors     ....     2
   Converg. threshold    (grad. norm)   ....   1.000e-05
   Grad. Scal. Fac. for Micro threshold ....   0.100
   Minimum threshold for Micro iter.    ....   1.000e-02
   NR start threshold (gradient norm)   ....   1.000e-04
   Initial trust radius                 ....   0.400
   Minimum AH scaling param. (alpha)    ....   1.000
   Maximum AH scaling param. (alpha)    .... 1000.000
   Quad. conv. algorithm                .... NR
   White noise on init. David. guess    .... on
   Maximum white noise                  ....   0.010
   Pseudo random numbers                .... off
   Inactive MOs                         .... canonical
   Orbital update algorithm             .... Taylor
   Preconditioner                       .... Diag
   Full preconditioner red. dimension   ....   250
 SOSCF                 CNVSOSCF           .... on
   Start iteration     SOSCFMaxIt         ....   150
   Startup grad/error  SOSCFStart         ....  0.003300
   Hessian update      SOSCFHessUp        .... L-BFGS
   Autom. constraints  SOSCFAutoConstrain .... off
 Level Shifting         CNVShift        .... on
   Level shift para.    LevelShift      ....    0.2500
   Turn off err/grad.   ShiftErr        ....    0.0010
 Zerner damping         CNVZerner       .... off
 Static damping         CNVDamp         .... on
   Fraction old density DampFac         ....    0.7000
   Max. Damping (<1)    DampMax         ....    0.9800
   Min. Damping (>=0)   DampMin         ....    0.0000
   Turn off err/grad.   DampErr         ....    0.1000

SCF Procedure:
 Maximum # iterations   MaxIter         ....   125
 SCF integral mode      SCFMode         .... Direct
   Integral package                     .... SHARK and LIBINT hybrid scheme
 Reset frequency        DirectResetFreq ....    20
 Integral Threshold     Thresh          ....  2.500e-11 Eh
 Primitive CutOff       TCut            ....  2.500e-12 Eh

Convergence Tolerance:
 Convergence Check Mode ConvCheckMode   .... Total+1el-Energy
 Convergence forced     ConvForced      .... 0
 Energy Change          TolE            ....  1.000e-08 Eh
 1-El. energy change                    ....  1.000e-05 Eh
 Orbital Gradient       TolG            ....  1.000e-05
 Orbital Rotation angle TolX            ....  1.000e-05
 DIIS Error             TolErr          ....  5.000e-07

---------------------
INITIAL GUESS: MOREAD
---------------------
Guess MOs are being read from file: Inputs/Catechin_CPCM.gbw
Input Geometry matches current geometry (good)
Input basis set matches current basis set (good)
Occupation numbers will be reassigned to an Aufbau configuration
MOs were renormalized
MOs were reorthogonalized (Cholesky)
                      ------------------
                      INITIAL GUESS DONE (   0.2 sec)
                      ------------------
             **** ENERGY FILE WAS UPDATED (Inputs/Catechin_CPCM.en.tmp) ****
Finished Guess after   0.6 sec
Maximum memory used throughout the entire GUESS-calculation: 26.1 MB

-------------------------------------------------------------------------------------------
                                      ORCA LEAN-SCF
                              memory conserving SCF solver
-------------------------------------------------------------------------------------------

--------------------
CPCM SOLVATION MODEL
--------------------
CPCM parameters:
  Epsilon                                         ...      80.1510
  Refrac                                          ...       1.3328
  Rsolv                                           ...       1.3000
  Surface type                                    ... GAUSSIAN VDW
  Discretization scheme                           ... Constant charge density
    Threshold for H atoms                         ...       5.0000 (charges/Ang^2)
    Threshold for non-H atoms                     ...       5.0000 (charges/Ang^2)
  Epsilon function type                           ...         CPCM
Solvent:                                          ... WATER
Radii:
  Scheme                                          ... Element-dependent radii
  Radius for O  used is    3.4469 Bohr (=   1.8240 Ang.)
  Radius for C  used is    3.8550 Bohr (=   2.0400 Ang.)
  Radius for H  used is    2.4944 Bohr (=   1.3200 Ang.)
Calculating surface                               ...        done! (  0.0s)
Cavity surface points                             ...         3007
Cavity Volume                                     ...    2161.0993
Cavity Surface-area                               ...    1120.4582
Calculating surface distance matrix               ...        done! (  0.1s)
Performing Cholesky decomposition & store         ...        done! (  0.7s)
Overall time for CPCM initialization              ...                 0.9s

----------------------------------------D-I-I-S--------------------------------------------
Iteration    Energy (Eh)           Delta-E    RMSDP     MaxDP     DIISErr   Damp  Time(sec)
-------------------------------------------------------------------------------------------
               ***  Starting incremental Fock matrix formation  ***
                              *** Initializing SOSCF ***
---------------------------------------S-O-S-C-F--------------------------------------
Iteration    Energy (Eh)           Delta-E    RMSDP     MaxDP     MaxGrad    Time(sec)
--------------------------------------------------------------------------------------
    1    -1030.7789475139813931     0.00e+00  6.81e-06  4.68e-04  3.01e-05    21.0
               *** Restarting incremental Fock matrix formation ***
    2    -1030.7789484035999976    -8.90e-07  3.38e-06  1.66e-04  4.10e-05    21.6
    3    -1030.7789484992028974    -9.56e-08  1.02e-06  4.21e-05  5.59e-06    11.6
    4    -1030.7789485040195814    -4.82e-09  5.16e-07  2.47e-05  6.43e-06    11.7
                 **** Energy Check signals convergence ****

               *****************************************************
               *                     SUCCESS                       *
               *           SCF CONVERGED AFTER   4 CYCLES          *
               *****************************************************

Recomputing exchange energy using gridx3       ... done (   29.181 sec)
Old exchange energy                            :    -26.465927585 Eh
New exchange energy                            :    -26.465948749 Eh
Exchange energy change after final integration :     -0.000021164 Eh
Total energy after final integration           :  -1030.778969671 Eh
             **** ENERGY FILE WAS UPDATED (Inputs/Catechin_CPCM.en.tmp) ****

----------------
TOTAL SCF ENERGY
----------------

Total Energy       :      -1030.77896967088827 Eh          -28048.92174 eV

Components:
Nuclear Repulsion  :       1636.64803508815271 Eh           44535.45717 eV
Electronic Energy  :      -2667.38419704684111 Eh          -72583.21406 eV
One Electron Energy:      -4661.35656694494173 Eh         -126841.96071 eV
Two Electron Energy:       1993.97236989810085 Eh           54258.74665 eV
CPCM Dielectric    :         -0.04278654847714 Eh              -1.16428 eV

Virial components:
Potential Energy   :      -2055.59321682446898 Eh          -55935.53514 eV
Kinetic Energy     :       1024.81424715358094 Eh           27886.61339 eV
Virial Ratio       :          2.00582029624771

DFT components:
N(Alpha)           :       76.000011494890 electrons
N(Beta)            :       76.000011494890 electrons
N(Total)           :      152.000022989780 electrons
E(X)               :     -105.197649995014 Eh       
E(C)               :       -6.208479007061 Eh       
E(XC)              :     -111.406129002075 Eh       

CPCM Solvation Model Properties:
Surface-charge          :         -0.01555494044001
Corrected charge        :         -0.00000000000000
Outlying charge corr.   :          0.00001311369785 Eh               0.00036 eV
Free-energy (cav+disp)  :  This term is not implemented in the current solvation scheme

---------------
SCF CONVERGENCE
---------------

  Last Energy change         ...    4.8167e-09  Tolerance :   1.0000e-08
  Last MAX-Density change    ...    2.4714e-05  Tolerance :   1.0000e-07
  Last RMS-Density change    ...    5.1591e-07  Tolerance :   5.0000e-09
  Last DIIS Error            ...    4.0534e-04  Tolerance :   5.0000e-07
  Last Orbital Gradient      ...    6.4331e-06  Tolerance :   1.0000e-05
  Last Orbital Rotation      ...    1.2934e-05  Tolerance :   1.0000e-05


----------------
ORBITAL ENERGIES
----------------

  NO   OCC          E(Eh)            E(eV) 
   0   2.0000     -19.168494      -521.6012 
   1   2.0000     -19.167824      -521.5830 
   2   2.0000     -19.167107      -521.5635 
   3   2.0000     -19.166498      -521.5469 
   4   2.0000     -19.166121      -521.5367 
   5   2.0000     -19.137440      -520.7562 
   6   2.0000     -10.243967      -278.7525 
   7   2.0000     -10.243769      -278.7471 
   8   2.0000     -10.241261      -278.6789 
   9   2.0000     -10.240813      -278.6667 
  10   2.0000     -10.240431      -278.6563 
  11   2.0000     -10.236687      -278.5544 
  12   2.0000     -10.228107      -278.3209 
  13   2.0000     -10.184060      -277.1224 
  14   2.0000     -10.178643      -276.9750 
  15   2.0000     -10.178219      -276.9634 
  16   2.0000     -10.176343      -276.9124 
  17   2.0000     -10.176145      -276.9070 
  18   2.0000     -10.175398      -276.8867 
  19   2.0000     -10.167007      -276.6583 
  20   2.0000     -10.166585      -276.6468 
  21   2.0000      -1.061708       -28.8905 
  22   2.0000      -1.059270       -28.8242 
  23   2.0000      -1.053144       -28.6575 
  24   2.0000      -1.050756       -28.5925 
  25   2.0000      -1.040958       -28.3259 
  26   2.0000      -1.015880       -27.6435 
  27   2.0000      -0.850430       -23.1414 
  28   2.0000      -0.839268       -22.8376 
  29   2.0000      -0.791335       -21.5333 
  30   2.0000      -0.766601       -20.8603 
  31   2.0000      -0.736910       -20.0524 
  32   2.0000      -0.729616       -19.8538 
  33   2.0000      -0.716328       -19.4923 
  34   2.0000      -0.669325       -18.2132 
  35   2.0000      -0.632819       -17.2199 
  36   2.0000      -0.629205       -17.1215 
  37   2.0000      -0.612961       -16.6795 
  38   2.0000      -0.590994       -16.0818 
  39   2.0000      -0.579337       -15.7646 
  40   2.0000      -0.551690       -15.0123 
  41   2.0000      -0.538110       -14.6427 
  42   2.0000      -0.531959       -14.4753 
  43   2.0000      -0.510339       -13.8870 
  44   2.0000      -0.497589       -13.5401 
  45   2.0000      -0.489091       -13.3088 
  46   2.0000      -0.482241       -13.1225 
  47   2.0000      -0.474877       -12.9221 
  48   2.0000      -0.457969       -12.4620 
  49   2.0000      -0.448067       -12.1925 
  50   2.0000      -0.435384       -11.8474 
  51   2.0000      -0.430764       -11.7217 
  52   2.0000      -0.422956       -11.5092 
  53   2.0000      -0.421646       -11.4736 
  54   2.0000      -0.416285       -11.3277 
  55   2.0000      -0.403922       -10.9913 
  56   2.0000      -0.398837       -10.8529 
  57   2.0000      -0.389802       -10.6071 
  58   2.0000      -0.387595       -10.5470 
  59   2.0000      -0.378060       -10.2875 
  60   2.0000      -0.372126       -10.1261 
  61   2.0000      -0.365149        -9.9362 
  62   2.0000      -0.360182        -9.8010 
  63   2.0000      -0.358178        -9.7465 
  64   2.0000      -0.353148        -9.6097 
  65   2.0000      -0.345713        -9.4073 
  66   2.0000      -0.338141        -9.2013 
  67   2.0000      -0.334187        -9.0937 
  68   2.0000      -0.321316        -8.7435 
  69   2.0000      -0.303027        -8.2458 
  70   2.0000      -0.274894        -7.4803 
  71   2.0000      -0.268247        -7.2994 
  72   2.0000      -0.235000        -6.3947 
  73   2.0000      -0.211774        -5.7627 
  74   2.0000      -0.206884        -5.6296 
  75   2.0000      -0.204981        -5.5778 
  76   0.0000       0.003403         0.0926 
  77   0.0000       0.015163         0.4126 
  78   0.0000       0.020345         0.5536 
  79   0.0000       0.022678         0.6171 
  80   0.0000       0.086636         2.3575 
  81   0.0000       0.090346         2.4585 
  82   0.0000       0.093526         2.5450 
  83   0.0000       0.097719         2.6591 
  84   0.0000       0.102881         2.7995 
  85   0.0000       0.108974         2.9653 
  86   0.0000       0.116126         3.1600 
*Only the first 10 virtual orbitals were printed.

                    ********************************
                    * MULLIKEN POPULATION ANALYSIS *
                    ********************************

-----------------------
MULLIKEN ATOMIC CHARGES
-----------------------
   0 O :   -0.545563
   1 O :   -0.684849
   2 O :   -0.664576
   3 O :   -0.673731
   4 O :   -0.667971
   5 O :   -0.665302
   6 C :    0.142764
   7 C :    0.044918
   8 C :   -0.358108
   9 C :    0.025142
  10 C :    0.322177
  11 C :    0.136334
  12 C :    0.289565
  13 C :   -0.312813
  14 C :   -0.274836
  15 C :   -0.212973
  16 C :   -0.285662
  17 C :    0.359448
  18 C :    0.306112
  19 C :   -0.228597
  20 C :    0.305852
  21 H :    0.140509
  22 H :    0.156070
  23 H :    0.162028
  24 H :    0.165237
  25 H :    0.152792
  26 H :    0.161031
  27 H :    0.434457
  28 H :    0.150115
  29 H :    0.153080
  30 H :    0.161405
  31 H :    0.452124
  32 H :    0.450921
  33 H :    0.451230
  34 H :    0.451671
Sum of atomic charges:   -0.0000000

--------------------------------
MULLIKEN REDUCED ORBITAL CHARGES
--------------------------------
  0 O s       :     3.892218  s :     3.892218
      pz      :     1.776361  p :     4.624455
      px      :     1.300832
      py      :     1.547262
      dz2     :     0.004162  d :     0.028890
      dxz     :     0.004895
      dyz     :     0.003456
      dx2y2   :     0.009057
      dxy     :     0.007320

  1 O s       :     3.887950  s :     3.887950
      pz      :     1.757486  p :     4.770762
      px      :     1.719945
      py      :     1.293330
      dz2     :     0.002344  d :     0.026138
      dxz     :     0.004561
      dyz     :     0.008156
      dx2y2   :     0.003665
      dxy     :     0.007412

  2 O s       :     3.885835  s :     3.885835
      pz      :     1.844759  p :     4.750864
      px      :     1.373285
      py      :     1.532820
      dz2     :     0.004362  d :     0.027878
      dxz     :     0.001113
      dyz     :     0.004777
      dx2y2   :     0.012783
      dxy     :     0.004843

  3 O s       :     3.884887  s :     3.884887
      pz      :     1.855386  p :     4.760959
      px      :     1.636759
      py      :     1.268814
      dz2     :     0.004440  d :     0.027886
      dxz     :     0.003512
      dyz     :     0.002345
      dx2y2   :     0.003428
      dxy     :     0.014161

  4 O s       :     3.888002  s :     3.888002
      pz      :     1.370282  p :     4.751973
      px      :     1.620321
      py      :     1.761370
      dz2     :     0.002795  d :     0.027995
      dxz     :     0.012400
      dyz     :     0.003134
      dx2y2   :     0.005689
      dxy     :     0.003977

  5 O s       :     3.887735  s :     3.887735
      pz      :     1.614031  p :     4.749539
      px      :     1.321129
      py      :     1.814379
      dz2     :     0.006113  d :     0.028028
      dxz     :     0.008984
      dyz     :     0.003767
      dx2y2   :     0.003941
      dxy     :     0.005223

  6 C s       :     3.135407  s :     3.135407
      pz      :     0.998628  p :     2.652799
      px      :     0.866648
      py      :     0.787523
      dz2     :     0.015501  d :     0.069030
      dxz     :     0.007121
      dyz     :     0.014344
      dx2y2   :     0.015271
      dxy     :     0.016794

  7 C s       :     3.175530  s :     3.175530
      pz      :     1.014631  p :     2.712677
      px      :     0.918121
      py      :     0.779926
      dz2     :     0.015371  d :     0.066875
      dxz     :     0.006991
      dyz     :     0.013593
      dx2y2   :     0.013548
      dxy     :     0.017373

  8 C s       :     3.257913  s :     3.257913
      pz      :     1.074044  p :     3.060020
      px      :     0.958239
      py      :     1.027737
      dz2     :     0.007120  d :     0.040176
      dxz     :     0.005108
      dyz     :     0.012415
      dx2y2   :     0.007517
      dxy     :     0.008016

  9 C s       :     3.108689  s :     3.108689
      pz      :     1.116936  p :     2.829131
      px      :     0.882564
      py      :     0.829632
      dz2     :     0.003212  d :     0.037039
      dxz     :     0.005084
      dyz     :     0.006077
      dx2y2   :     0.012343
      dxy     :     0.010322

 10 C s       :     3.094889  s :     3.094889
      pz      :     0.960868  p :     2.511673
      px      :     0.675083
      py      :     0.875722
      dz2     :     0.004971  d :     0.071262
      dxz     :     0.015060
      dyz     :     0.009213
      dx2y2   :     0.022862
      dxy     :     0.019157

 11 C s       :     3.122945  s :     3.122945
      pz      :     0.863897  p :     2.700986
      px      :     0.873468
      py      :     0.963621
      dz2     :     0.009951  d :     0.039735
      dxz     :     0.011130
      dyz     :     0.006426
      dx2y2   :     0.006781
      dxy     :     0.005446

 12 C s       :     3.097795  s :     3.097795
      pz      :     0.951159  p :     2.540961
      px      :     0.880874
      py      :     0.708927
      dz2     :     0.005005  d :     0.071679
      dxz     :     0.009564
      dyz     :     0.014684
      dx2y2   :     0.021683
      dxy     :     0.020744

 13 C s       :     3.187927  s :     3.187927
      pz      :     1.155685  p :     3.092851
      px      :     0.959304
      py      :     0.977862
      dz2     :     0.003538  d :     0.032035
      dxz     :     0.004846
      dyz     :     0.003052
      dx2y2   :     0.009748
      dxy     :     0.010850

 14 C s       :     3.202299  s :     3.202299
      pz      :     1.020513  p :     3.037732
      px      :     0.960111
      py      :     1.057108
      dz2     :     0.007319  d :     0.034806
      dxz     :     0.011144
      dyz     :     0.004201
      dx2y2   :     0.006099
      dxy     :     0.006043

 15 C s       :     3.207081  s :     3.207081
      pz      :     0.995625  p :     2.969177
      px      :     0.955566
      py      :     1.017985
      dz2     :     0.007985  d :     0.036715
      dxz     :     0.010613
      dyz     :     0.005235
      dx2y2   :     0.005653
      dxy     :     0.007229

 16 C s       :     3.180004  s :     3.180004
      pz      :     1.158860  p :     3.073775
      px      :     0.937056
      py      :     0.977859
      dz2     :     0.003507  d :     0.031882
      dxz     :     0.002386
      dyz     :     0.005417
      dx2y2   :     0.011341
      dxy     :     0.009232

 17 C s       :     3.075705  s :     3.075705
      pz      :     0.943543  p :     2.492699
      px      :     0.813718
      py      :     0.735437
      dz2     :     0.004953  d :     0.072149
      dxz     :     0.011159
      dyz     :     0.013419
      dx2y2   :     0.018848
      dxy     :     0.023769

 18 C s       :     3.063886  s :     3.063886
      pz      :     0.737753  p :     2.561544
      px      :     0.885233
      py      :     0.938558
      dz2     :     0.016011  d :     0.068458
      dxz     :     0.020366
      dyz     :     0.012283
      dx2y2   :     0.009294
      dxy     :     0.010503

 19 C s       :     3.191848  s :     3.191848
      pz      :     0.968053  p :     3.001801
      px      :     0.994383
      py      :     1.039366
      dz2     :     0.006544  d :     0.034947
      dxz     :     0.012568
      dyz     :     0.004411
      dx2y2   :     0.005880
      dxy     :     0.005544

 20 C s       :     3.060195  s :     3.060195
      pz      :     0.931909  p :     2.565467
      px      :     0.657677
      py      :     0.975881
      dz2     :     0.012427  d :     0.068485
      dxz     :     0.019649
      dyz     :     0.006103
      dx2y2   :     0.013669
      dxy     :     0.016637

 21 H s       :     0.859491  s :     0.859491

 22 H s       :     0.843930  s :     0.843930

 23 H s       :     0.837972  s :     0.837972

 24 H s       :     0.834763  s :     0.834763

 25 H s       :     0.847208  s :     0.847208

 26 H s       :     0.838969  s :     0.838969

 27 H s       :     0.565543  s :     0.565543

 28 H s       :     0.849885  s :     0.849885

 29 H s       :     0.846920  s :     0.846920

 30 H s       :     0.838595  s :     0.838595

 31 H s       :     0.547876  s :     0.547876

 32 H s       :     0.549079  s :     0.549079

 33 H s       :     0.548770  s :     0.548770

 34 H s       :     0.548329  s :     0.548329



                     *******************************
                     * LOEWDIN POPULATION ANALYSIS *
                     *******************************

----------------------
LOEWDIN ATOMIC CHARGES
----------------------
   0 O :   -0.175485
   1 O :   -0.421187
   2 O :   -0.329894
   3 O :   -0.334905
   4 O :   -0.335390
   5 O :   -0.333713
   6 C :   -0.020140
   7 C :    0.009215
   8 C :   -0.236757
   9 C :   -0.113401
  10 C :    0.079719
  11 C :   -0.042102
  12 C :    0.078625
  13 C :   -0.238598
  14 C :   -0.173167
  15 C :   -0.149387
  16 C :   -0.238819
  17 C :    0.075802
  18 C :    0.041201
  19 C :   -0.178299
  20 C :    0.041591
  21 H :    0.117573
  22 H :    0.131792
  23 H :    0.136107
  24 H :    0.140053
  25 H :    0.148455
  26 H :    0.147292
  27 H :    0.335134
  28 H :    0.141578
  29 H :    0.148472
  30 H :    0.147893
  31 H :    0.350323
  32 H :    0.349404
  33 H :    0.350200
  34 H :    0.350816

-------------------------------
LOEWDIN REDUCED ORBITAL CHARGES
-------------------------------
  0 O s       :     3.467495  s :     3.467495
      pz      :     1.765850  p :     4.642591
      px      :     1.316640
      py      :     1.560100
      dz2     :     0.008075  d :     0.065399
      dxz     :     0.011400
      dyz     :     0.006288
      dx2y2   :     0.021483
      dxy     :     0.018154

  1 O s       :     3.558240  s :     3.558240
      pz      :     1.769781  p :     4.815137
      px      :     1.723258
      py      :     1.322099
      dz2     :     0.004204  d :     0.047810
      dxz     :     0.005850
      dyz     :     0.014508
      dx2y2   :     0.008790
      dxy     :     0.014458

  2 O s       :     3.521874  s :     3.521874
      pz      :     1.830533  p :     4.756601
      px      :     1.376534
      py      :     1.549533
      dz2     :     0.006632  d :     0.051419
      dxz     :     0.002477
      dyz     :     0.008044
      dx2y2   :     0.023626
      dxy     :     0.010640

  3 O s       :     3.522710  s :     3.522710
      pz      :     1.839829  p :     4.761045
      px      :     1.635805
      py      :     1.285412
      dz2     :     0.006667  d :     0.051150
      dxz     :     0.004441
      dyz     :     0.005791
      dx2y2   :     0.008413
      dxy     :     0.025839

  4 O s       :     3.523331  s :     3.523331
      pz      :     1.384783  p :     4.760101
      px      :     1.620668
      py      :     1.754650
      dz2     :     0.008151  d :     0.051959
      dxz     :     0.022073
      dyz     :     0.008041
      dx2y2   :     0.007658
      dxy     :     0.006035

  5 O s       :     3.522954  s :     3.522954
      pz      :     1.610519  p :     4.758703
      px      :     1.344149
      py      :     1.804035
      dz2     :     0.009715  d :     0.052055
      dxz     :     0.017406
      dyz     :     0.004313
      dx2y2   :     0.009538
      dxy     :     0.011083

  6 C s       :     2.896085  s :     2.896085
      pz      :     1.078681  p :     2.968203
      px      :     0.979706
      py      :     0.909816
      dz2     :     0.032305  d :     0.155852
      dxz     :     0.014821
      dyz     :     0.033670
      dx2y2   :     0.036917
      dxy     :     0.038139

  7 C s       :     2.898604  s :     2.898604
      pz      :     1.079837  p :     2.944710
      px      :     0.968361
      py      :     0.896512
      dz2     :     0.031922  d :     0.147471
      dxz     :     0.013862
      dyz     :     0.031720
      dx2y2   :     0.032265
      dxy     :     0.037703

  8 C s       :     2.930849  s :     2.930849
      pz      :     1.119402  p :     3.220274
      px      :     1.035365
      py      :     1.065508
      dz2     :     0.014118  d :     0.085634
      dxz     :     0.010088
      dyz     :     0.024527
      dx2y2   :     0.018038
      dxy     :     0.018862

  9 C s       :     2.866390  s :     2.866390
      pz      :     1.098081  p :     3.151991
      px      :     1.025745
      py      :     1.028164
      dz2     :     0.006996  d :     0.095019
      dxz     :     0.010650
      dyz     :     0.011770
      dx2y2   :     0.034834
      dxy     :     0.030769

 10 C s       :     2.850445  s :     2.850445
      pz      :     0.957369  p :     2.899218
      px      :     0.865477
      py      :     1.076371
      dz2     :     0.011148  d :     0.170619
      dxz     :     0.031579
      dyz     :     0.019879
      dx2y2   :     0.056907
      dxy     :     0.051105

 11 C s       :     2.872864  s :     2.872864
      pz      :     1.050944  p :     3.068167
      px      :     1.017496
      py      :     0.999727
      dz2     :     0.026363  d :     0.101072
      dxz     :     0.030010
      dyz     :     0.015794
      dx2y2   :     0.016345
      dxy     :     0.012560

 12 C s       :     2.851699  s :     2.851699
      pz      :     0.946078  p :     2.898851
      px      :     1.031190
      py      :     0.921583
      dz2     :     0.011171  d :     0.170824
      dxz     :     0.020599
      dyz     :     0.031374
      dx2y2   :     0.054864
      dxy     :     0.052815

 13 C s       :     2.914071  s :     2.914071
      pz      :     1.139354  p :     3.246664
      px      :     1.043900
      py      :     1.063410
      dz2     :     0.006801  d :     0.077864
      dxz     :     0.010130
      dyz     :     0.005560
      dx2y2   :     0.026944
      dxy     :     0.028429

 14 C s       :     2.914950  s :     2.914950
      pz      :     1.071047  p :     3.175439
      px      :     1.049174
      py      :     1.055218
      dz2     :     0.017720  d :     0.082778
      dxz     :     0.027073
      dyz     :     0.009061
      dx2y2   :     0.014869
      dxy     :     0.014055

 15 C s       :     2.913815  s :     2.913815
      pz      :     1.064426  p :     3.149378
      px      :     1.056853
      py      :     1.028099
      dz2     :     0.018181  d :     0.086193
      dxz     :     0.026938
      dyz     :     0.009367
      dx2y2   :     0.015182
      dxy     :     0.016525

 16 C s       :     2.913853  s :     2.913853
      pz      :     1.141005  p :     3.247282
      px      :     1.069236
      py      :     1.037041
      dz2     :     0.006743  d :     0.077684
      dxz     :     0.003597
      dyz     :     0.011829
      dx2y2   :     0.028724
      dxy     :     0.026790

 17 C s       :     2.851140  s :     2.851140
      pz      :     0.941632  p :     2.901009
      px      :     1.027626
      py      :     0.931751
      dz2     :     0.011152  d :     0.172048
      dxz     :     0.024023
      dyz     :     0.028679
      dx2y2   :     0.049458
      dxy     :     0.058736

 18 C s       :     2.851840  s :     2.851840
      pz      :     0.913868  p :     2.941763
      px      :     1.056538
      py      :     0.971357
      dz2     :     0.039608  d :     0.165196
      dxz     :     0.051023
      dyz     :     0.028460
      dx2y2   :     0.021888
      dxy     :     0.024217

 19 C s       :     2.917588  s :     2.917588
      pz      :     1.054787  p :     3.177128
      px      :     1.075364
      py      :     1.046978
      dz2     :     0.016361  d :     0.083583
      dxz     :     0.029853
      dyz     :     0.009725
      dx2y2   :     0.014331
      dxy     :     0.013312

 20 C s       :     2.852564  s :     2.852564
      pz      :     1.061934  p :     2.940738
      px      :     0.878132
      py      :     1.000672
      dz2     :     0.030194  d :     0.165107
      dxz     :     0.050570
      dyz     :     0.013863
      dx2y2   :     0.033307
      dxy     :     0.037172

 21 H s       :     0.882427  s :     0.882427

 22 H s       :     0.868208  s :     0.868208

 23 H s       :     0.863893  s :     0.863893

 24 H s       :     0.859947  s :     0.859947

 25 H s       :     0.851545  s :     0.851545

 26 H s       :     0.852708  s :     0.852708

 27 H s       :     0.664866  s :     0.664866

 28 H s       :     0.858422  s :     0.858422

 29 H s       :     0.851528  s :     0.851528

 30 H s       :     0.852107  s :     0.852107

 31 H s       :     0.649677  s :     0.649677

 32 H s       :     0.650596  s :     0.650596

 33 H s       :     0.649800  s :     0.649800

 34 H s       :     0.649184  s :     0.649184



                      *****************************
                      * MAYER POPULATION ANALYSIS *
                      *****************************

  NA   - Mulliken gross atomic population
  ZA   - Total nuclear charge
  QA   - Mulliken gross atomic charge
  VA   - Mayer's total valence
  BVA  - Mayer's bonded valence
  FA   - Mayer's free valence

  ATOM       NA         ZA         QA         VA         BVA        FA
  0 O      8.5456     8.0000    -0.5456     1.9360     1.9360     0.0000
  1 O      8.6848     8.0000    -0.6848     1.7537     1.7537    -0.0000
  2 O      8.6646     8.0000    -0.6646     1.8665     1.8665    -0.0000
  3 O      8.6737     8.0000    -0.6737     1.8485     1.8485    -0.0000
  4 O      8.6680     8.0000    -0.6680     1.8457     1.8457    -0.0000
  5 O      8.6653     8.0000    -0.6653     1.8487     1.8487    -0.0000
  6 C      5.8572     6.0000     0.1428     3.8002     3.8002     0.0000
  7 C      5.9551     6.0000     0.0449     3.7894     3.7894    -0.0000
  8 C      6.3581     6.0000    -0.3581     3.8374     3.8374    -0.0000
  9 C      5.9749     6.0000     0.0251     3.8186     3.8186    -0.0000
 10 C      5.6778     6.0000     0.3222     3.8706     3.8706     0.0000
 11 C      5.8637     6.0000     0.1363     3.9544     3.9544    -0.0000
 12 C      5.7104     6.0000     0.2896     3.8875     3.8875     0.0000
 13 C      6.3128     6.0000    -0.3128     3.8166     3.8166     0.0000
 14 C      6.2748     6.0000    -0.2748     3.8791     3.8791    -0.0000
 15 C      6.2130     6.0000    -0.2130     3.9256     3.9256    -0.0000
 16 C      6.2857     6.0000    -0.2857     3.8127     3.8127     0.0000
 17 C      5.6406     6.0000     0.3594     3.8647     3.8647     0.0000
 18 C      5.6939     6.0000     0.3061     3.8417     3.8417     0.0000
 19 C      6.2286     6.0000    -0.2286     3.8918     3.8918    -0.0000
 20 C      5.6941     6.0000     0.3059     3.8551     3.8551    -0.0000
 21 H      0.8595     1.0000     0.1405     0.9290     0.9290     0.0000
 22 H      0.8439     1.0000     0.1561     0.9300     0.9300    -0.0000
 23 H      0.8380     1.0000     0.1620     0.9306     0.9306    -0.0000
 24 H      0.8348     1.0000     0.1652     0.9316     0.9316    -0.0000
 25 H      0.8472     1.0000     0.1528     0.9399     0.9399     0.0000
 26 H      0.8390     1.0000     0.1610     0.9393     0.9393    -0.0000
 27 H      0.5655     1.0000     0.4345     0.7805     0.7805    -0.0000
 28 H      0.8499     1.0000     0.1501     0.9373     0.9373    -0.0000
 29 H      0.8469     1.0000     0.1531     0.9388     0.9388    -0.0000
 30 H      0.8386     1.0000     0.1614     0.9330     0.9330    -0.0000
 31 H      0.5479     1.0000     0.4521     0.7699     0.7699     0.0000
 32 H      0.5491     1.0000     0.4509     0.7705     0.7705    -0.0000
 33 H      0.5488     1.0000     0.4512     0.7711     0.7711    -0.0000
 34 H      0.5483     1.0000     0.4517     0.7706     0.7706    -0.0000

  Mayer bond orders larger than 0.100000
B(  0-O ,  7-C ) :   0.8435 B(  0-O , 10-C ) :   0.9132 B(  1-O ,  6-C ) :   0.9147 
B(  1-O , 27-H ) :   0.7616 B(  2-O , 12-C ) :   0.9810 B(  2-O , 31-H ) :   0.7491 
B(  3-O , 17-C ) :   0.9487 B(  3-O , 32-H ) :   0.7516 B(  4-O , 18-C ) :   0.9689 
B(  4-O , 33-H ) :   0.7498 B(  5-O , 20-C ) :   0.9770 B(  5-O , 34-H ) :   0.7498 
B(  6-C ,  7-C ) :   0.9548 B(  6-C ,  8-C ) :   0.9849 B(  6-C , 21-H ) :   0.9118 
B(  7-C , 11-C ) :   0.9933 B(  7-C , 22-H ) :   0.9066 B(  8-C ,  9-C ) :   0.9612 
B(  8-C , 23-H ) :   0.9156 B(  8-C , 24-H ) :   0.9206 B(  9-C , 10-C ) :   1.3867 
B(  9-C , 12-C ) :   1.3428 B( 10-C , 13-C ) :   1.3495 B( 11-C , 14-C ) :   1.3745 
B( 11-C , 15-C ) :   1.4470 B( 12-C , 16-C ) :   1.3822 B( 13-C , 17-C ) :   1.3846 
B( 13-C , 25-H ) :   0.9082 B( 14-C , 18-C ) :   1.4126 B( 14-C , 26-H ) :   0.9060 
B( 15-C , 19-C ) :   1.3913 B( 15-C , 28-H ) :   0.9189 B( 16-C , 17-C ) :   1.3620 
B( 16-C , 29-H ) :   0.9092 B( 18-C , 20-C ) :   1.3196 B( 19-C , 20-C ) :   1.4247 
B( 19-C , 30-H ) :   0.9143 

-------
TIMINGS
-------

Total SCF time: 0 days 0 hours 1 min 48 sec 

Total time                  ....     108.494 sec
Sum of individual times     ....      97.562 sec  ( 89.9%)

SCF preparation             ....       2.106 sec  (  1.9%)
Fock matrix formation       ....      94.032 sec  ( 86.7%)
  Startup                   ....       0.099 sec  (  0.1% of F)
  Split-RI-J                ....       8.570 sec  (  9.1% of F)
  Chain of spheres X        ....      70.112 sec  ( 74.6% of F)
  XC integration            ....      14.141 sec  ( 15.0% of F)
    XC Preparation          ....       0.000 sec  (  0.0% of XC)
    Basis function eval.    ....       2.445 sec  ( 17.3% of XC)
    Density eval.           ....       1.959 sec  ( 13.9% of XC)
    XC-Functional eval.     ....       0.352 sec  (  2.5% of XC)
    XC-Potential eval.      ....       1.669 sec  ( 11.8% of XC)
  CPCM terms                ....      10.001 sec  ( 10.6% of F)
Diagonalization             ....       0.000 sec  (  0.0%)
Density matrix formation    ....       0.247 sec  (  0.2%)
Total Energy calculation    ....       0.138 sec  (  0.1%)
Population analysis         ....       0.399 sec  (  0.4%)
Orbital Transformation      ....       0.068 sec  (  0.1%)
Orbital Orthonormalization  ....       0.000 sec  (  0.0%)
DIIS solution               ....       0.114 sec  (  0.1%)
SOSCF solution              ....       0.458 sec  (  0.4%)
Finished LeanSCF after 109.5 sec

Maximum memory used throughout the entire LEANSCF-calculation: 92.4 MB

------------------------------------------------------------------------------
                         ORCA PROPERTY INTEGRAL CALCULATIONS
------------------------------------------------------------------------------

GBWName                                   ... Inputs/Catechin_CPCM.gbw
Number of atoms                           ...     35
Number of basis functions                 ...    322
Max core memory                           ...   4096 MB

Dipole integrals                          ... YES
Quadrupole integrals                      ...  NO
Linear momentum integrals                 ...  NO
Angular momentum integrals                ...  NO
Higher moments length integrals           ...  NO
Higher moments velocity integrals         ...  NO
Kinetic energy integrals                  ...  NO
GIAO right hand sides                     ...  NO
GIAO dipole derivative integrals          ...  NO
SOC integrals                             ...  NO
EPR diamagnetic integrals (GIAO)          ...  NO
EPR gauge integrals                       ...  NO
Field gradient integrals                  ...  NO (   0 nuclei)
Spin-dipole/Fermi contact integrals       ...  NO (   0 nuclei)
Contact density integrals                 ...  NO (   0 nuclei)
Nucleus-orbit integrals                   ...  NO (   0 nuclei)
Geometric perturbations                   ... YES (  35 nuclei)

Choice of electric origin   ... Center of mass
Position of electric origin ... ( -0.0134, -0.0039,  0.0527) 
Choice of magnetic origin   ... GIAO
Position of magnetic origin ... (  0.0000,  0.0000,  0.0000) 

Calculating integrals                     ... Electric Dipole (Length)     done (  0.0 sec)
Calculating integrals                     ... Geometrical perturbation right hand sides

-----------------------
GEOMETRIC PERTURBATIONS (35 nuclei)
-----------------------

MaxCore                            ...   4096 MB
Number of batches                  ...      1

BATCH   0: Atoms    0 -   34 (105 perturbations)
   => H(core) and overlap derivative integrals     ... done (     1.1 sec)
   => Making and storing internal U-coefficients   ... done (     2.3 sec)
   => RI-J derivative integrals                    ... done (    33.8 sec)
   => RI-J response operators                      ... done (     8.9 sec)
   => Chain of spheres derivative integrals        ... done (    82.6 sec)
   => Chain of spheres response operator           ... done (   174.9 sec)
   => XC derivative integrals                      ... done (   212.8 sec)
   => XC response operators                        ... done (    67.8 sec)
   => CPCM derivative integrals                    ... done (    73.9 sec)
   => CPCM response operators                      ... done (   124.3 sec)
   => Completing and storing right hand sides      ... done (     0.7 sec)
   => Total time for right hand sides = 716.5 sec

  geometrical perturbations done (716.5 sec)

Property integrals calculated in 716.6 sec

Maximum memory used throughout the entire PROPINT-calculation: 594.6 MB

-------------------------   --------------------
FINAL SINGLE POINT ENERGY     -1030.778969670888
-------------------------   --------------------

                                *** OPTIMIZATION RUN DONE ***

------------------------------------------------------------------------------
                            ORCA SCF RESPONSE CALCULATION
------------------------------------------------------------------------------

GBWName                                 ... Inputs/Catechin_CPCM.gbw
Number of atoms                         ...     35
Number of basis functions               ...    322
Max core memory                         ...   4096 MB

Electric field perturbation             ...  NO
Quadrupolar field perturbation          ...  NO
Magnetic field perturbation (no GIAO)   ...  NO
Magnetic field perturbation (with GIAO) ...  NO
Linear momentum (velocity) perturbation ...  NO
Spin-orbit coupling perturbation        ...  NO
Choice of electric origin               ... Center of mass
Position of electric origin             ...    -0.013382    -0.003877     0.052717
Choice of magnetic origin               ... GIAO
Position of magnetic origin             ...     0.000000     0.000000     0.000000
Nuclear geometric perturbations         ... YES ( 105 perturbations)
Nucleus-orbit perturbations             ...  NO (   0 perturbations)
Spin-dipole/Fermi contact perturbations ...  NO (   0 perturbations)

Total number of real perturbations      ...    105
Total number of imaginary perturbations ...      0
Total number of triplet perturbations   ...      0
Total number of SOC perturbations       ...      0


                                **********************
                                * REAL PERTURBATIONS *
                                **********************



-------------------
SHARK CP-SCF DRIVER
-------------------

Dimension of the orbital basis          ...    322
Dimension of the CPSCF-problem          ...  18696
Number of operators                     ...      1
Max. number of iterations               ...    128
Convergence Tolerance                   ... 1.0e-04
Number of perturbations                 ...    105
Perturbation type                       ... REAL

----------------------------
POPLE LINEAR EQUATION SOLVER
----------------------------

  ITERATION   0:   ||err||_max =   4.4366e-01 ( 133.6 sec   0/105 done)
  ITERATION   1:   ||err||_max =   5.2044e-02 ( 131.3 sec   0/105 done)
  ITERATION   2:   ||err||_max =   2.3721e-02 ( 136.0 sec   0/105 done)
  ITERATION   3:   ||err||_max =   7.9287e-03 ( 138.0 sec   0/105 done)
  ITERATION   4:   ||err||_max =   2.4586e-03 ( 148.7 sec   1/105 done)
  ITERATION   5:   ||err||_max =   4.8967e-04 ( 155.3 sec  24/105 done)
  ITERATION   6:   ||err||_max =   1.5845e-04 ( 123.5 sec  80/105 done)
  ITERATION   7:   ||err||_max =   5.1603e-05 (  54.7 sec 105/105 done)

CP-SCF equations solved in 1039.7 sec
Response densities calculated in   0.6 sec

Maximum memory used throughout the entire SCFRESP-calculation: 636.6 MB

------------------------------------------------------------------------------
                              ORCA PROPERTY CALCULATIONS
------------------------------------------------------------------------------

GBWName                                 ... Inputs/Catechin_CPCM.gbw
Number of atoms                         ...     35
Number of basis functions               ...    322
Max core memory                         ...   4096 MB

Electric properties:
Dipole moment                           ... YES
Quadrupole moment                       ...  NO
Static polarizability (Dipole/Dipole)   ...  NO
Static polarizability (Dipole/Quad.)    ...  NO
Static polarizability (Quad./Quad.)     ...  NO
Static polarizability (Velocity)        ...  NO
Static hyperpolarizability              ...  NO

Atomic electric properties:
Dipole moment                           ...  NO
Quadrupole moment                       ...  NO
Static polarizability                   ...  NO

Choice of electric origin               ... Center of mass
Position of electric origin             ...    -0.013382    -0.003877     0.052717

General magnetic properties:
Magnetizability                         ...  NO

EPR properties:
g-Tensor (aka g-matrix)                 ...  NO
Zero-Field splitting spin-orbit         ...  NO
Zero-field splitting spin-spin          ...  NO
Hyperfine couplings                     ...  NO (   0 nuclei)
Quadrupole couplings                    ...  NO (   0 nuclei)
Contact density                         ...  NO (   0 nuclei)

NMR properties:
Chemical shifts                         ...  NO (   0 nuclei)
Spin-rotation constants                 ...  NO (   0 nuclei)
Spin-spin couplings                     ...  NO (   0 nuclei,    0 pairs)

Choice of magnetic origin               ... GIAO
Position of magnetic origin             ...     0.000000     0.000000     0.000000

Properties with geometric perturbations:
SCF Hessian                             ... YES
IR spectrum                             ... YES
VCD spectrum                            ...  NO
X-ray spectroscopy properties:
SCF XES/XAS/RIXS spectra                ...  NO

SCF SOC stabilization energy            ...  NO
Diagonal Born-Oppenheimer correction    ...  NO

-------------
DIPOLE MOMENT
-------------

Method             : SCF
Type of density    : Electron Density
Multiplicity       :   1
Irrep              :   0
Energy             : -1030.7789696708882730 Eh
Basis              : AO
                                X                 Y                 Z
Electronic contribution:     -0.789377245       4.178279788       1.052921817
Nuclear contribution   :      1.652813368      -4.542983657      -0.969890343
                        -----------------------------------------
Total Dipole Moment    :      0.863436123      -0.364703869       0.083031474
                        -----------------------------------------
Magnitude (a.u.)       :      0.940970285
Magnitude (Debye)      :      2.391756388



--------------------
Rotational spectrum 
--------------------
 
Rotational constants in cm-1:             0.022049             0.004903             0.004332 
Rotational constants in MHz :           660.998564           146.973476           129.876194 

Dipole components along the rotational axes: 
x,y,z [a.u.] :     0.866612    -0.343960     0.126887 
x,y,z [Debye]:     2.202752    -0.874277     0.322520 

 

Dipole moment calculation done in   0.1 sec 

-----------
SCF HESSIAN
-----------

Occupied/Occupied contributions to the Hessian:
   => Occupied/Occupied contributions              ... done (  5.8 sec)
Perturbed density contributions to the Hessian:
   => Perturbed density contributions              ... done ( 14.7 sec)
Explicit contributions to the Hessian:
   => Nuclear repulsion Hessian                    ... done (  0.0 sec)
   => HCore and overlap Hessian                    ... done ( 62.8 sec)
   => RI-J Hessian                                 ... done ( 49.8 sec)
   => COSX Hessian                                 ... done (894.2 sec)
   => XC-Hessian                                   ... done (113.6 sec)
   => CPCM-Hessian                                 ... done ( 43.6 sec)
   => Explicit contributions done
Dipole derivatives                                 ... done (  0.5 sec)
Mass weighting the Hessian           ... done
Calculating normal modes             ... done
Scaling frequencies                  ... done

-----------------------
VIBRATIONAL FREQUENCIES
-----------------------

Scaling factor for frequencies =  1.000000000  (already applied!)

     0:       0.00 cm**-1
     1:       0.00 cm**-1
     2:       0.00 cm**-1
     3:       0.00 cm**-1
     4:       0.00 cm**-1
     5:       0.00 cm**-1
     6:      25.23 cm**-1
     7:      37.41 cm**-1
     8:      50.51 cm**-1
     9:      68.90 cm**-1
    10:     131.05 cm**-1
    11:     162.45 cm**-1
    12:     172.99 cm**-1
    13:     210.98 cm**-1
    14:     211.72 cm**-1
    15:     227.08 cm**-1
    16:     247.05 cm**-1
    17:     256.46 cm**-1
    18:     262.52 cm**-1
    19:     315.22 cm**-1
    20:     321.61 cm**-1
    21:     326.34 cm**-1
    22:     347.70 cm**-1
    23:     364.18 cm**-1
    24:     366.15 cm**-1
    25:     378.20 cm**-1
    26:     385.69 cm**-1
    27:     390.20 cm**-1
    28:     417.92 cm**-1
    29:     437.72 cm**-1
    30:     469.56 cm**-1
    31:     490.40 cm**-1
    32:     515.33 cm**-1
    33:     528.81 cm**-1
    34:     557.77 cm**-1
    35:     568.07 cm**-1
    36:     594.72 cm**-1
    37:     622.84 cm**-1
    38:     625.57 cm**-1
    39:     640.97 cm**-1
    40:     666.87 cm**-1
    41:     676.54 cm**-1
    42:     712.39 cm**-1
    43:     719.93 cm**-1
    44:     772.85 cm**-1
    45:     793.88 cm**-1
    46:     797.95 cm**-1
    47:     805.79 cm**-1
    48:     816.00 cm**-1
    49:     824.86 cm**-1
    50:     863.34 cm**-1
    51:     902.05 cm**-1
    52:     921.96 cm**-1
    53:     990.39 cm**-1
    54:    1000.72 cm**-1
    55:    1046.91 cm**-1
    56:    1053.66 cm**-1
    57:    1063.43 cm**-1
    58:    1092.60 cm**-1
    59:    1114.87 cm**-1
    60:    1131.43 cm**-1
    61:    1177.34 cm**-1
    62:    1187.09 cm**-1
    63:    1194.34 cm**-1
    64:    1203.14 cm**-1
    65:    1209.43 cm**-1
    66:    1215.77 cm**-1
    67:    1217.55 cm**-1
    68:    1245.80 cm**-1
    69:    1258.23 cm**-1
    70:    1276.35 cm**-1
    71:    1295.28 cm**-1
    72:    1323.73 cm**-1
    73:    1330.27 cm**-1
    74:    1341.04 cm**-1
    75:    1356.11 cm**-1
    76:    1384.50 cm**-1
    77:    1388.15 cm**-1
    78:    1397.91 cm**-1
    79:    1403.28 cm**-1
    80:    1418.48 cm**-1
    81:    1452.84 cm**-1
    82:    1488.13 cm**-1
    83:    1501.64 cm**-1
    84:    1504.93 cm**-1
    85:    1551.82 cm**-1
    86:    1576.39 cm**-1
    87:    1651.15 cm**-1
    88:    1653.54 cm**-1
    89:    1667.25 cm**-1
    90:    1671.79 cm**-1
    91:    3005.90 cm**-1
    92:    3023.58 cm**-1
    93:    3037.70 cm**-1
    94:    3072.69 cm**-1
    95:    3183.19 cm**-1
    96:    3189.66 cm**-1
    97:    3202.40 cm**-1
    98:    3203.86 cm**-1
    99:    3205.59 cm**-1
   100:    3719.94 cm**-1
   101:    3720.72 cm**-1
   102:    3721.34 cm**-1
   103:    3722.37 cm**-1
   104:    3724.65 cm**-1


------------
NORMAL MODES
------------

These modes are the Cartesian displacements weighted by the diagonal matrix
M(i,i)=1/sqrt(m[i]) where m[i] is the mass of the displaced atom
Thus, these vectors are normalized but *not* orthogonal

                  0          1          2          3          4          5    
      0       0.000000   0.000000   0.000000   0.000000   0.000000   0.000000
      1       0.000000   0.000000   0.000000   0.000000   0.000000   0.000000
      2       0.000000   0.000000   0.000000   0.000000   0.000000   0.000000
      3       0.000000   0.000000   0.000000   0.000000   0.000000   0.000000
      4       0.000000   0.000000   0.000000   0.000000   0.000000   0.000000
      5       0.000000   0.000000   0.000000   0.000000   0.000000   0.000000
      6       0.000000   0.000000   0.000000   0.000000   0.000000   0.000000
      7       0.000000   0.000000   0.000000   0.000000   0.000000   0.000000
      8       0.000000   0.000000   0.000000   0.000000   0.000000   0.000000
      9       0.000000   0.000000   0.000000   0.000000   0.000000   0.000000
     10       0.000000   0.000000   0.000000   0.000000   0.000000   0.000000
     11       0.000000   0.000000   0.000000   0.000000   0.000000   0.000000
     12       0.000000   0.000000   0.000000   0.000000   0.000000   0.000000
     13       0.000000   0.000000   0.000000   0.000000   0.000000   0.000000
     14       0.000000   0.000000   0.000000   0.000000   0.000000   0.000000
     15       0.000000   0.000000   0.000000   0.000000   0.000000   0.000000
     16       0.000000   0.000000   0.000000   0.000000   0.000000   0.000000
     17       0.000000   0.000000   0.000000   0.000000   0.000000   0.000000
     18       0.000000   0.000000   0.000000   0.000000   0.000000   0.000000
     19       0.000000   0.000000   0.000000   0.000000   0.000000   0.000000
     20       0.000000   0.000000   0.000000   0.000000   0.000000   0.000000
     21       0.000000   0.000000   0.000000   0.000000   0.000000   0.000000
     22       0.000000   0.000000   0.000000   0.000000   0.000000   0.000000
     23       0.000000   0.000000   0.000000   0.000000   0.000000   0.000000
     24       0.000000   0.000000   0.000000   0.000000   0.000000   0.000000
     25       0.000000   0.000000   0.000000   0.000000   0.000000   0.000000
     26       0.000000   0.000000   0.000000   0.000000   0.000000   0.000000
     27       0.000000   0.000000   0.000000   0.000000   0.000000   0.000000
     28       0.000000   0.000000   0.000000   0.000000   0.000000   0.000000
     29       0.000000   0.000000   0.000000   0.000000   0.000000   0.000000
     30       0.000000   0.000000   0.000000   0.000000   0.000000   0.000000
     31       0.000000   0.000000   0.000000   0.000000   0.000000   0.000000
     32       0.000000   0.000000   0.000000   0.000000   0.000000   0.000000
     33       0.000000   0.000000   0.000000   0.000000   0.000000   0.000000
     34       0.000000   0.000000   0.000000   0.000000   0.000000   0.000000
     35       0.000000   0.000000   0.000000   0.000000   0.000000   0.000000
     36       0.000000   0.000000   0.000000   0.000000   0.000000   0.000000
     37       0.000000   0.000000   0.000000   0.000000   0.000000   0.000000
     38       0.000000   0.000000   0.000000   0.000000   0.000000   0.000000
     39       0.000000   0.000000   0.000000   0.000000   0.000000   0.000000
     40       0.000000   0.000000   0.000000   0.000000   0.000000   0.000000
     41       0.000000   0.000000   0.000000   0.000000   0.000000   0.000000
     42       0.000000   0.000000   0.000000   0.000000   0.000000   0.000000
     43       0.000000   0.000000   0.000000   0.000000   0.000000   0.000000
     44       0.000000   0.000000   0.000000   0.000000   0.000000   0.000000
     45       0.000000   0.000000   0.000000   0.000000   0.000000   0.000000
     46       0.000000   0.000000   0.000000   0.000000   0.000000   0.000000
     47       0.000000   0.000000   0.000000   0.000000   0.000000   0.000000
     48       0.000000   0.000000   0.000000   0.000000   0.000000   0.000000
     49       0.000000   0.000000   0.000000   0.000000   0.000000   0.000000
     50       0.000000   0.000000   0.000000   0.000000   0.000000   0.000000
     51       0.000000   0.000000   0.000000   0.000000   0.000000   0.000000
     52       0.000000   0.000000   0.000000   0.000000   0.000000   0.000000
     53       0.000000   0.000000   0.000000   0.000000   0.000000   0.000000
     54       0.000000   0.000000   0.000000   0.000000   0.000000   0.000000
     55       0.000000   0.000000   0.000000   0.000000   0.000000   0.000000
     56       0.000000   0.000000   0.000000   0.000000   0.000000   0.000000
     57       0.000000   0.000000   0.000000   0.000000   0.000000   0.000000
     58       0.000000   0.000000   0.000000   0.000000   0.000000   0.000000
     59       0.000000   0.000000   0.000000   0.000000   0.000000   0.000000
     60       0.000000   0.000000   0.000000   0.000000   0.000000   0.000000
     61       0.000000   0.000000   0.000000   0.000000   0.000000   0.000000
     62       0.000000   0.000000   0.000000   0.000000   0.000000   0.000000
     63       0.000000   0.000000   0.000000   0.000000   0.000000   0.000000
     64       0.000000   0.000000   0.000000   0.000000   0.000000   0.000000
     65       0.000000   0.000000   0.000000   0.000000   0.000000   0.000000
     66       0.000000   0.000000   0.000000   0.000000   0.000000   0.000000
     67       0.000000   0.000000   0.000000   0.000000   0.000000   0.000000
     68       0.000000   0.000000   0.000000   0.000000   0.000000   0.000000
     69       0.000000   0.000000   0.000000   0.000000   0.000000   0.000000
     70       0.000000   0.000000   0.000000   0.000000   0.000000   0.000000
     71       0.000000   0.000000   0.000000   0.000000   0.000000   0.000000
     72       0.000000   0.000000   0.000000   0.000000   0.000000   0.000000
     73       0.000000   0.000000   0.000000   0.000000   0.000000   0.000000
     74       0.000000   0.000000   0.000000   0.000000   0.000000   0.000000
     75       0.000000   0.000000   0.000000   0.000000   0.000000   0.000000
     76       0.000000   0.000000   0.000000   0.000000   0.000000   0.000000
     77       0.000000   0.000000   0.000000   0.000000   0.000000   0.000000
     78       0.000000   0.000000   0.000000   0.000000   0.000000   0.000000
     79       0.000000   0.000000   0.000000   0.000000   0.000000   0.000000
     80       0.000000   0.000000   0.000000   0.000000   0.000000   0.000000
     81       0.000000   0.000000   0.000000   0.000000   0.000000   0.000000
     82       0.000000   0.000000   0.000000   0.000000   0.000000   0.000000
     83       0.000000   0.000000   0.000000   0.000000   0.000000   0.000000
     84       0.000000   0.000000   0.000000   0.000000   0.000000   0.000000
     85       0.000000   0.000000   0.000000   0.000000   0.000000   0.000000
     86       0.000000   0.000000   0.000000   0.000000   0.000000   0.000000
     87       0.000000   0.000000   0.000000   0.000000   0.000000   0.000000
     88       0.000000   0.000000   0.000000   0.000000   0.000000   0.000000
     89       0.000000   0.000000   0.000000   0.000000   0.000000   0.000000
     90       0.000000   0.000000   0.000000   0.000000   0.000000   0.000000
     91       0.000000   0.000000   0.000000   0.000000   0.000000   0.000000
     92       0.000000   0.000000   0.000000   0.000000   0.000000   0.000000
     93       0.000000   0.000000   0.000000   0.000000   0.000000   0.000000
     94       0.000000   0.000000   0.000000   0.000000   0.000000   0.000000
     95       0.000000   0.000000   0.000000   0.000000   0.000000   0.000000
     96       0.000000   0.000000   0.000000   0.000000   0.000000   0.000000
     97       0.000000   0.000000   0.000000   0.000000   0.000000   0.000000
     98       0.000000   0.000000   0.000000   0.000000   0.000000   0.000000
     99       0.000000   0.000000   0.000000   0.000000   0.000000   0.000000
    100       0.000000   0.000000   0.000000   0.000000   0.000000   0.000000
    101       0.000000   0.000000   0.000000   0.000000   0.000000   0.000000
    102       0.000000   0.000000   0.000000   0.000000   0.000000   0.000000
    103       0.000000   0.000000   0.000000   0.000000   0.000000   0.000000
    104       0.000000   0.000000   0.000000   0.000000   0.000000   0.000000
                  6          7          8          9         10         11    
      0      -0.003104   0.002367  -0.057518   0.019967  -0.033369  -0.018156
      1      -0.009097   0.034985  -0.127115   0.008956  -0.013563   0.086810
      2      -0.053259   0.255425   0.053844  -0.216085   0.032108  -0.045803
      3       0.009260  -0.010423   0.101092  -0.062467  -0.054915  -0.009254
      4      -0.018202   0.033696  -0.178935   0.077053   0.005007   0.078784
      5      -0.108224   0.058938   0.031356   0.417008   0.012089  -0.068268
      6       0.000646   0.018515   0.092727   0.002779  -0.029229  -0.121340
      7       0.001183  -0.039929   0.071850  -0.017904   0.000626  -0.019561
      8      -0.016291  -0.299759  -0.111620  -0.151545  -0.118489  -0.051126
      9      -0.030782   0.061516  -0.182761  -0.015234  -0.065266   0.100580
     10       0.009920  -0.029306   0.097571  -0.000814   0.017953  -0.035697
     11       0.155731  -0.000737   0.040288   0.269700   0.004851   0.043079
     12       0.103100  -0.140243   0.062726   0.006761   0.190824   0.037616
     13       0.251929   0.090634   0.103362  -0.045461  -0.012543  -0.175643
     14      -0.084074  -0.103051  -0.024802  -0.000925  -0.007908   0.068894
     15      -0.003271  -0.042088   0.073934   0.003444   0.058738   0.074127
     16      -0.055804  -0.080403   0.319837  -0.010645  -0.087178   0.281758
     17       0.094417  -0.130773  -0.101848  -0.006262   0.105638  -0.111517
     18       0.004547   0.005287   0.054082   0.040926  -0.082271  -0.029100
     19      -0.021780   0.014110  -0.143753   0.088640   0.016825   0.075014
     20      -0.085147   0.082946   0.032121   0.093950   0.042581   0.000392
     21      -0.005409   0.018647  -0.014865  -0.008647   0.022671   0.016754
     22      -0.003457   0.061257  -0.154690  -0.030345  -0.018519   0.051228
     23      -0.058393   0.137313   0.054309  -0.036906  -0.056955  -0.039316
     24       0.004607  -0.002040   0.066930  -0.010965  -0.049366  -0.024067
     25      -0.009727   0.010490  -0.069688   0.004572  -0.001260   0.073778
     26      -0.095636   0.035071  -0.008290  -0.083403   0.241536   0.123329
     27      -0.001179   0.008902   0.012150   0.008726  -0.050449  -0.044044
     28      -0.005824   0.004507  -0.032380  -0.007857   0.001257   0.077443
     29      -0.038374   0.009934  -0.012353  -0.146794   0.113273   0.037511
     30      -0.006636   0.013717  -0.052614   0.011110  -0.044285  -0.015070
     31      -0.006480   0.020910  -0.060793  -0.002839  -0.001185   0.085967
     32      -0.017593   0.139686   0.029983  -0.136038   0.086701  -0.003557
     33      -0.005221   0.007809  -0.015105  -0.001150   0.033667  -0.001958
     34      -0.010257   0.033098  -0.153694  -0.012286   0.005220  -0.059254
     35      -0.024366   0.078336   0.060002  -0.028009  -0.144389  -0.026353
     36      -0.005223   0.023511   0.017396   0.003775  -0.038813  -0.045958
     37       0.000376  -0.023333   0.041237  -0.012330   0.004596   0.018889
     38       0.004933  -0.148339  -0.054814  -0.098095  -0.019306  -0.010781
     39      -0.016149   0.029555  -0.120746   0.008762  -0.057259   0.036849
     40      -0.001279   0.010613  -0.020686  -0.001790   0.004137   0.062265
     41       0.043399   0.147527   0.049910  -0.027099   0.077912  -0.010664
     42       0.048179  -0.057509   0.005442   0.004612   0.092956   0.022005
     43       0.129922   0.079266  -0.112836  -0.021964  -0.001858  -0.049168
     44      -0.075691   0.026333   0.047488  -0.020590  -0.122811  -0.027227
     45      -0.059423   0.056431  -0.011376  -0.003809   0.008439  -0.045377
     46      -0.173248  -0.057397  -0.068321   0.004828   0.049699  -0.256424
     47       0.068980   0.060912   0.032620  -0.030633  -0.131620   0.068789
     48      -0.014824   0.040643  -0.047014  -0.001475  -0.041038   0.002040
     49       0.005574  -0.034394   0.083388  -0.010880   0.007577  -0.017570
     50       0.067796  -0.151490  -0.038993   0.019712  -0.063597  -0.020363
     51      -0.020679   0.043996  -0.116207  -0.002950  -0.053511   0.039588
     52       0.004419  -0.017272   0.052171  -0.005382   0.010193   0.005359
     53       0.088487   0.003794   0.018844   0.085009   0.016148   0.004728
     54       0.048371  -0.074695   0.034502   0.005539   0.110813   0.020372
     55       0.114182   0.041986   0.036668  -0.024100  -0.001525  -0.093322
     56      -0.036088  -0.046108  -0.002358  -0.012442  -0.049028   0.017401
     57      -0.059051   0.041019   0.015538  -0.002485   0.012428  -0.036662
     58      -0.193518  -0.100531   0.079644   0.009521   0.047924  -0.220410
     59       0.112873  -0.008771  -0.016398  -0.025968  -0.054602   0.078814
     60      -0.006108  -0.024007   0.040808   0.002265   0.060716   0.018565
     61      -0.049728  -0.049420   0.146571  -0.007257  -0.011513  -0.015628
     62       0.060948  -0.062037  -0.040492  -0.015841  -0.001151  -0.002466
     63       0.005420   0.026156   0.063198   0.219529  -0.210030  -0.121267
     64      -0.044657  -0.020968  -0.168210   0.274250   0.079285   0.084311
     65      -0.078264   0.096038   0.040262   0.066021   0.006602  -0.015002
     66      -0.022766   0.072457  -0.019915  -0.055550   0.131519   0.048371
     67       0.010867   0.131700  -0.139095  -0.159951  -0.031287   0.039844
     68      -0.065770   0.130683   0.049125  -0.014067  -0.031165  -0.028942
     69       0.007702  -0.037880   0.066092  -0.143062   0.056728   0.045467
     70       0.029493   0.014831  -0.055183  -0.002674  -0.162391  -0.027154
     71      -0.117320   0.030084  -0.016369  -0.089532   0.340617   0.185469
     72       0.004048   0.022433   0.116866   0.054664  -0.118176  -0.051260
     73      -0.039779   0.003874  -0.062441  -0.000243   0.130445   0.163709
     74      -0.122321   0.017926  -0.026150  -0.120269   0.394827   0.217176
     75      -0.020509   0.032920  -0.177441   0.011349  -0.068259   0.082178
     76      -0.001888   0.024170  -0.047691   0.003423  -0.001612   0.086256
     77       0.059854   0.252748   0.087543   0.007247   0.081269  -0.021201
     78       0.090956  -0.097451   0.005586   0.006078   0.135726   0.045555
     79       0.256130   0.148321  -0.171652  -0.037666  -0.022363  -0.004126
     80      -0.151448   0.038069   0.065434  -0.016443  -0.153597  -0.061317
     81       0.016868   0.006770   0.139800   0.006909  -0.160814  -0.042203
     82      -0.029489   0.006260  -0.169587   0.145915   0.046601   0.070130
     83      -0.128884   0.009517   0.021672   0.474291   0.134522  -0.061048
     84      -0.102212   0.108496  -0.026361  -0.006878  -0.028681  -0.077952
     85      -0.285835  -0.095716  -0.092379   0.012905   0.071353  -0.371747
     86       0.109501   0.100922   0.038874  -0.036123  -0.157362   0.114796
     87      -0.018133   0.051893  -0.042461  -0.008155  -0.031995   0.002482
     88       0.010350  -0.056438   0.137988  -0.012866   0.007078  -0.054840
     89       0.103042  -0.272494  -0.068713   0.087124  -0.155782  -0.038378
     90      -0.101009   0.080317   0.020773  -0.004892  -0.029329  -0.060629
     91      -0.320045  -0.171469   0.158023   0.022635   0.067746  -0.277224
     92       0.185533  -0.022439  -0.043358  -0.027602  -0.024232   0.115960
     93      -0.003989   0.034364   0.090097  -0.005066  -0.015676  -0.109724
     94       0.005179  -0.063548   0.125111  -0.021076  -0.007434  -0.087679
     95       0.019051  -0.410085  -0.140064  -0.082172  -0.224151  -0.083624
     96      -0.035867   0.063286  -0.234489  -0.018629  -0.080336   0.148534
     97       0.008310  -0.016293   0.065102   0.002934   0.012269   0.000296
     98       0.174692   0.103776   0.081677   0.327163   0.050706   0.057759
     99       0.140436  -0.171933   0.058139   0.007099   0.239637   0.051684
    100       0.356165   0.155368   0.007584  -0.056321  -0.020966  -0.201340
    101      -0.155063  -0.084641   0.006488   0.001676  -0.061223   0.059820
    102      -0.042375  -0.004377   0.070361   0.000685   0.016979   0.055211
    103      -0.179330  -0.140884   0.358103   0.002367  -0.074422   0.263988
    104       0.160922  -0.134485  -0.112517  -0.008918   0.128169  -0.093500
                 12         13         14         15         16         17    
      0       0.035306  -0.076805  -0.006892  -0.008948   0.013666   0.032389
      1      -0.023037   0.056212   0.004856  -0.016416   0.017357   0.008053
      2      -0.118178   0.034065   0.131272   0.128031  -0.037374  -0.340779
      3       0.101517   0.134063  -0.194540   0.078389  -0.090692   0.024903
      4      -0.065003  -0.080528   0.122329  -0.061050   0.093036   0.008110
      5      -0.142036   0.019665  -0.071418   0.065849  -0.060018  -0.041366
      6       0.049189  -0.274704  -0.031173   0.037641   0.069989  -0.073508
      7      -0.001435  -0.042523   0.013185   0.021672   0.028611  -0.025871
      8      -0.055977   0.033488   0.162404   0.248671   0.025986   0.068647
      9       0.014088   0.093239  -0.159256   0.050522   0.034554  -0.054530
     10       0.004797  -0.060729   0.054396  -0.012420   0.004531   0.005027
     11       0.182667   0.057853   0.151850   0.111605  -0.001438  -0.073236
     12      -0.102119   0.071436   0.012433   0.031426   0.031063  -0.094836
     13       0.041135   0.140589  -0.026031  -0.045873   0.133875  -0.003028
     14      -0.002132  -0.066400   0.020849   0.010203  -0.064497   0.010063
     15      -0.065628   0.035341   0.125884  -0.074340  -0.009594   0.043421
     16      -0.030219  -0.081289  -0.037841   0.051110   0.014288  -0.038579
     17       0.008170   0.016722  -0.081707   0.058821  -0.001519  -0.041954
     18      -0.026527   0.044346  -0.048070   0.014011  -0.011164   0.018283
     19      -0.016149  -0.015321  -0.011331   0.008890   0.025733   0.001706
     20       0.049027   0.035944   0.022395  -0.024945  -0.032001   0.008367
     21      -0.017640  -0.000284   0.036763  -0.012392   0.003369  -0.001546
     22      -0.030902  -0.022562   0.043744   0.007818   0.013893  -0.040300
     23       0.019060   0.047900   0.079585  -0.034343  -0.023490  -0.030773
     24       0.027473   0.016659  -0.060009   0.025230  -0.004227   0.007029
     25       0.012860   0.078135  -0.067922   0.021392  -0.012308  -0.005169
     26       0.264351  -0.019806  -0.014006  -0.015690   0.004941   0.025878
     27       0.033922  -0.079402  -0.039796   0.043958   0.016410  -0.019833
     28      -0.001288   0.111801  -0.058303   0.003462  -0.009346   0.000147
     29       0.018997  -0.059747  -0.139779  -0.080209   0.009263   0.038276
     30       0.038484  -0.064165  -0.012579   0.018393   0.015965  -0.023273
     31      -0.016870   0.112229  -0.038746   0.003821  -0.001343  -0.005483
     32      -0.116733  -0.039373  -0.103114   0.022809   0.015420   0.050702
     33      -0.023462   0.003664   0.084967  -0.049395  -0.018827   0.035915
     34       0.018875  -0.099263   0.045329  -0.000614  -0.079343   0.030007
     35       0.052432   0.046350   0.081564  -0.102160   0.024851   0.082577
     36       0.043467  -0.105159  -0.042838   0.050524   0.026535  -0.020920
     37      -0.002726   0.027498  -0.018232  -0.004211   0.006105  -0.008646
     38      -0.047478  -0.036041  -0.100914  -0.103194  -0.004553  -0.015690
     39       0.046711  -0.002996  -0.049099   0.020765   0.017795  -0.055749
     40      -0.016600   0.086110  -0.033565   0.008061   0.002708   0.005429
     41      -0.184752  -0.050172  -0.173998   0.110693   0.059793   0.338554
     42      -0.053601   0.000602   0.086984  -0.038522  -0.046001   0.035000
     43       0.023632  -0.178951   0.055058   0.020977  -0.231659   0.072447
     44       0.047079   0.081279   0.071478  -0.110909   0.091058   0.072531
     45      -0.018970   0.050193   0.153113  -0.110737  -0.008643   0.070573
     46       0.052149   0.045077  -0.016327  -0.015546   0.022903   0.013018
     47       0.035768  -0.029615   0.061491  -0.061684  -0.015648   0.072156
     48       0.041357  -0.039276  -0.055462   0.071359   0.025750   0.003804
     49      -0.003015  -0.026349   0.000701  -0.016790   0.007648  -0.021339
     50      -0.058062  -0.041962  -0.177800  -0.334692  -0.048362  -0.206490
     51       0.033079   0.003628  -0.068307   0.046261   0.025052  -0.033242
     52      -0.005036   0.000538   0.002032  -0.007608   0.009226  -0.010670
     53      -0.035087  -0.026507  -0.109996  -0.074538   0.004771   0.044953
     54      -0.063608   0.031118   0.078131  -0.034843  -0.022057   0.015403
     55       0.028947  -0.042819   0.007587   0.004524  -0.096810   0.036679
     56       0.019971   0.015413   0.034071  -0.046739   0.034556   0.036882
     57      -0.023258   0.053488   0.157095  -0.114324  -0.017533   0.077776
     58       0.046002   0.050624  -0.044074   0.006240  -0.023780   0.013027
     59       0.011826  -0.036494   0.015736  -0.013581   0.007399   0.019819
     60      -0.052632   0.042029   0.135655  -0.086125  -0.023527   0.057958
     61       0.016777  -0.035305  -0.025084   0.025472  -0.063998   0.009598
     62       0.012838   0.003048  -0.007176  -0.005828   0.026498   0.004503
     63      -0.209681   0.039972  -0.024964   0.018690  -0.020915   0.000107
     64      -0.075869  -0.049723  -0.065652   0.056996   0.029580  -0.013484
     65       0.039539   0.046069   0.040466  -0.037725  -0.036656   0.010947
     66      -0.082341   0.025589   0.054979   0.064044  -0.017381  -0.149889
     67      -0.111699  -0.007952   0.073037   0.083528   0.026797  -0.202027
     68       0.025437   0.051190   0.075010  -0.036883  -0.030930  -0.022258
     69       0.128275   0.007620  -0.109245   0.024118   0.013651   0.022531
     70      -0.231364   0.085338  -0.120695  -0.027489  -0.025360  -0.018268
     71       0.409736  -0.025280   0.011935   0.011366   0.014496   0.034754
     72      -0.032433   0.112737  -0.019943   0.016514  -0.032576   0.002202
     73       0.207257   0.106858  -0.019665   0.053557  -0.005977   0.010658
     74       0.469202  -0.043440   0.007576   0.018145   0.023910   0.042364
     75       0.048881   0.056646  -0.099089   0.009230   0.012127  -0.068428
     76      -0.019041   0.123080  -0.051597   0.025764   0.002891   0.012081
     77      -0.217730  -0.015717  -0.083562   0.325584   0.087855   0.460611
     78      -0.075596  -0.006068   0.076527  -0.018766  -0.057777   0.019989
     79       0.020666  -0.243581   0.072948   0.031421  -0.293768   0.088846
     80       0.067613   0.106385   0.073638  -0.130864   0.120954   0.080719
     81      -0.016278   0.453175  -0.296076   0.129744  -0.607821   0.125091
     82      -0.035366  -0.156570   0.023866   0.002935   0.238596  -0.052485
     83      -0.029715  -0.278046  -0.152145   0.126975   0.454240  -0.187468
     84      -0.009692   0.082893   0.212605  -0.168132   0.007369   0.107409
     85       0.065455   0.154569  -0.037957  -0.041743   0.142120  -0.007345
     86       0.032592  -0.072149   0.097169  -0.071987  -0.070072   0.097878
     87       0.036762  -0.045005  -0.065599   0.076171   0.029511   0.024065
     88       0.003492  -0.065140   0.012508  -0.014549   0.004484  -0.027670
     89      -0.008079  -0.003714  -0.069340  -0.383230  -0.084752  -0.420587
     90      -0.004107   0.064787   0.171806  -0.137609  -0.007096   0.095898
     91       0.048740   0.131047  -0.069444  -0.004104   0.038558   0.000527
     92      -0.005568  -0.069252   0.010584   0.009231  -0.019621   0.008131
     93       0.050611  -0.266000  -0.047564   0.030640   0.068290  -0.059938
     94       0.002012  -0.178217   0.052191   0.052492   0.070946  -0.066845
     95      -0.070341   0.089251   0.262084   0.276043  -0.001182  -0.007603
     96       0.009168   0.166523  -0.229573   0.041056   0.038262  -0.095009
     97       0.005866  -0.004918   0.019180   0.009770   0.011056  -0.008803
     98       0.226444   0.088721   0.291400   0.371340   0.031644   0.062296
     99      -0.126580   0.077655  -0.017774   0.072572   0.045729  -0.158434
    100       0.050294   0.121524  -0.000374  -0.065804   0.149853   0.013018
    101       0.023305  -0.068370   0.048226  -0.031223  -0.085718   0.078238
    102      -0.049304   0.048946   0.169640  -0.121750   0.002606   0.081328
    103      -0.030541  -0.022348  -0.069750   0.051717   0.108542  -0.071276
    104      -0.002322  -0.011597  -0.098229   0.088427  -0.041091  -0.054848
                 18         19         20         21         22         23    
      0       0.011018  -0.040592   0.009808   0.009994   0.003334  -0.001064
      1       0.004667  -0.039475   0.010452   0.008588   0.007567  -0.000655
      2      -0.013127  -0.059028  -0.023481  -0.029563  -0.001175  -0.004093
      3      -0.072307  -0.142197   0.032226   0.016348  -0.023397  -0.005887
      4       0.074028  -0.067841   0.013877  -0.008251   0.067929  -0.001447
      5       0.026489  -0.011739  -0.014784   0.018008  -0.024785  -0.002151
      6       0.063261   0.126659  -0.012489  -0.029714  -0.038169   0.001819
      7       0.011068   0.157768  -0.026907  -0.032342  -0.025203   0.006095
      8       0.001501   0.008149  -0.002802   0.013875  -0.001756   0.004597
      9      -0.008714   0.260652  -0.043284  -0.055465  -0.024223   0.017392
     10       0.005279  -0.110476   0.017272   0.031030   0.031683  -0.005394
     11       0.004198   0.057683  -0.017432   0.068758  -0.005842  -0.085256
     12       0.017347   0.038411   0.306668   0.005635   0.020582  -0.001273
     13       0.028116  -0.019092   0.040135   0.002245   0.037083  -0.005795
     14      -0.016122   0.038423   0.247057   0.003991  -0.024240   0.001867
     15      -0.011189   0.001188  -0.196231   0.000031  -0.028566  -0.000285
     16       0.013544  -0.062403  -0.115578   0.002600  -0.033789  -0.000709
     17       0.007123  -0.030625  -0.338043  -0.012341   0.032915   0.001232
     18      -0.010473  -0.078177   0.013299   0.011513   0.037865  -0.001743
     19       0.026893  -0.109607   0.016098   0.004110   0.003406  -0.004748
     20       0.016850   0.051446   0.015243  -0.023912   0.020911   0.003149
     21       0.002920  -0.040180  -0.006692  -0.003044   0.017058  -0.000212
     22       0.009954  -0.094932   0.014295   0.007260  -0.013251  -0.004655
     23      -0.002897   0.055645   0.022426  -0.014375   0.028730   0.002599
     24      -0.012744  -0.064902   0.010050  -0.007052   0.034082   0.000064
     25      -0.009501  -0.022015   0.006428   0.022585  -0.006138  -0.002649
     26       0.024119  -0.041259   0.007276  -0.078087  -0.000035   0.003127
     27       0.011967  -0.064936   0.014663  -0.008022   0.015852  -0.001393
     28      -0.019570   0.022538  -0.005402   0.018464   0.007701   0.000532
     29       0.022691   0.063467  -0.022238   0.262146   0.004541  -0.016815
     30       0.010596  -0.032530   0.007219   0.000379   0.007387  -0.001075
     31      -0.016855   0.045257  -0.009572   0.000438   0.002399   0.003322
     32       0.005797   0.006823  -0.009878   0.081143   0.002874   0.003499
     33      -0.009496  -0.013723  -0.012294   0.001071  -0.009873  -0.000507
     34      -0.016542  -0.048510   0.011861   0.010188  -0.072225  -0.004023
     35      -0.010689   0.032082   0.022271  -0.002233   0.017666   0.001714
     36       0.020615  -0.053904   0.013764   0.004449   0.015584  -0.001799
     37      -0.007802   0.061489  -0.012281  -0.006557   0.002327   0.002120
     38       0.006096   0.014079  -0.005745   0.090169   0.003304  -0.009470
     39       0.007110  -0.022830   0.004653   0.021312   0.020459   0.001973
     40      -0.016553   0.088982  -0.016812  -0.019297  -0.007938   0.004249
     41       0.000014  -0.016313   0.023161  -0.118163  -0.001184  -0.002161
     42      -0.017863   0.013383  -0.069529  -0.000109  -0.011222  -0.000007
     43      -0.062596   0.044647   0.004973  -0.003368  -0.019423   0.000711
     44       0.008590  -0.012260  -0.022357   0.003630  -0.015047  -0.000535
     45      -0.015421   0.005992  -0.012366   0.002324  -0.023582  -0.000545
     46       0.004880  -0.052366   0.013514   0.009815  -0.069945  -0.003149
     47      -0.015344   0.022654   0.025223  -0.002747   0.021906   0.001383
     48       0.011047  -0.076977   0.017326   0.032247   0.033027  -0.004901
     49       0.000106   0.049377  -0.010200  -0.013683  -0.001690   0.002550
     50      -0.011189  -0.056195   0.008998  -0.105074   0.002899   0.038906
     51       0.005871  -0.000272   0.001974   0.015238   0.020822   0.002132
     52      -0.003546   0.064668  -0.013296  -0.014427  -0.001811   0.001746
     53      -0.002176  -0.022168   0.011579  -0.080556   0.000101   0.010743
     54      -0.010174   0.019064  -0.070514  -0.001105   0.000129   0.000138
     55      -0.029771   0.058582   0.038642  -0.007643   0.045365   0.001539
     56       0.002828  -0.013158   0.055387   0.005892  -0.036985  -0.001375
     57      -0.020014   0.031407   0.013985   0.000344  -0.007680   0.000635
     58      -0.010480   0.053528   0.028530  -0.008988   0.049878   0.004756
     59       0.000463  -0.024553   0.059646   0.004840  -0.025788  -0.002465
     60      -0.018201   0.029189  -0.091688  -0.000656  -0.009711   0.000228
     61      -0.017615   0.055737   0.032840  -0.009904   0.071446   0.003037
     62       0.006374  -0.026128   0.031396   0.004744  -0.034566  -0.001728
     63       0.013842  -0.061093   0.009580   0.052565   0.055044  -0.003255
     64       0.042974  -0.176451  -0.002732   0.007218  -0.018735  -0.007828
     65       0.019288   0.070614   0.020135  -0.018771   0.029836   0.003719
     66       0.009943  -0.056906  -0.033446  -0.021007   0.018786  -0.000723
     67      -0.013048  -0.164034  -0.006279   0.010206  -0.026117  -0.008901
     68       0.005044   0.070296   0.021553  -0.018630   0.032400   0.003570
     69      -0.011770  -0.097226  -0.007532   0.001376   0.028901  -0.000500
     70      -0.016583   0.126195  -0.016851   0.325002   0.007168  -0.018981
     71       0.027154  -0.127255   0.019242  -0.248384  -0.007829   0.012378
     72      -0.033510   0.014859   0.009967  -0.047145   0.051285   0.005311
     73      -0.009435  -0.117997   0.019175  -0.229792  -0.008948   0.012345
     74       0.036401  -0.167486   0.018653  -0.285705  -0.012176   0.014014
     75      -0.000636  -0.026761   0.006084   0.033670   0.027875   0.006659
     76      -0.021473   0.085791  -0.014858  -0.022919  -0.003834   0.000124
     77      -0.005034  -0.026738   0.033699  -0.211841  -0.003604  -0.059940
     78      -0.019075   0.020081  -0.079345   0.000567  -0.017226  -0.000481
     79      -0.080217   0.041290   0.005563  -0.003570  -0.027598  -0.000191
     80       0.015313  -0.016795  -0.009862   0.003268  -0.006705   0.000124
     81       0.547623  -0.141177   0.001969   0.000188  -0.099916  -0.006694
     82      -0.224673  -0.132818   0.020157   0.026838   0.025188  -0.006476
     83      -0.767860  -0.104246   0.011877   0.077759  -0.041092  -0.008825
     84      -0.018519   0.006320  -0.036523   0.005487  -0.044787  -0.001035
     85       0.035272  -0.118779   0.013524   0.020641  -0.128332  -0.005953
     86      -0.032063   0.057113   0.016363  -0.007006   0.043012   0.002619
     87       0.012476  -0.073749   0.017638   0.037514   0.032628  -0.012151
     88       0.004169   0.032813  -0.007078  -0.016976  -0.006922   0.002648
     89      -0.022707  -0.090012   0.006041  -0.158568   0.005015   0.113943
     90      -0.020471   0.027794   0.024720   0.000360  -0.008467   0.001507
     91       0.003434   0.056185   0.027625  -0.008406   0.030235   0.008355
     92      -0.003184  -0.022431   0.047621   0.004639  -0.019727  -0.004256
     93       0.062232   0.128499  -0.017515   0.054072  -0.032087   0.010149
     94       0.047406   0.326389  -0.049814  -0.096965  -0.078271   0.009145
     95      -0.024224  -0.174320   0.062487  -0.629895  -0.001684  -0.068764
     96      -0.019913   0.494614  -0.083948  -0.120392  -0.069121  -0.090912
     97      -0.001941   0.051109  -0.011658   0.000155   0.004315   0.034984
     98       0.010892  -0.004595  -0.014432   0.212775   0.037374   0.976540
     99       0.030083   0.031523   0.563154   0.016485  -0.114571   0.008690
    100       0.034576  -0.192617   0.046585   0.044791  -0.838006   0.053756
    101      -0.032428   0.093694  -0.045410  -0.019929   0.367907  -0.025706
    102      -0.015643   0.021816   0.070212   0.009399  -0.063461  -0.002892
    103       0.043534  -0.161066  -0.246166   0.013513  -0.165616  -0.011185
    104      -0.000251  -0.010357  -0.465260  -0.022001   0.099389   0.006422
                 24         25         26         27         28         29    
      0       0.013608  -0.010732  -0.039055  -0.034981  -0.020435  -0.021318
      1      -0.011112   0.011205   0.036816   0.041387  -0.035938   0.033181
      2      -0.013666   0.005381   0.010014  -0.014121   0.052620   0.017791
      3      -0.063166   0.027832   0.072696   0.084195  -0.083574   0.021614
      4       0.060459   0.005587   0.090690   0.066349   0.001452  -0.111782
      5      -0.035431   0.004743  -0.020299  -0.026852   0.088510   0.005966
      6      -0.070559   0.027327   0.051818   0.089078  -0.051498   0.081675
      7      -0.021709   0.004221   0.013738  -0.001673   0.010030  -0.023445
      8      -0.009824   0.008446   0.075521  -0.070747  -0.030844   0.023317
      9      -0.003927  -0.005338  -0.014079  -0.027762   0.044235  -0.051433
     10       0.061613  -0.030468  -0.101125  -0.092657  -0.001806   0.096039
     11       0.003484   0.001590   0.003900   0.007977   0.015485  -0.016948
     12       0.001405  -0.008336  -0.001814   0.007340  -0.085295  -0.025939
     13      -0.086739  -0.002093  -0.022344  -0.016489   0.015080  -0.007387
     14       0.010514   0.004662   0.005941   0.000447   0.039063   0.040983
     15      -0.027745   0.020081  -0.008974   0.007730  -0.008343   0.090677
     16       0.002631   0.054349  -0.042599  -0.026227  -0.070355  -0.114841
     17       0.052633  -0.032772   0.026914   0.021364  -0.049200  -0.004752
     18       0.037460   0.003281   0.071295   0.035845   0.055381  -0.195184
     19      -0.040577   0.024983   0.061450   0.065959  -0.012835   0.086686
     20       0.059959  -0.017899  -0.005376   0.025038  -0.242265  -0.017624
     21       0.022798  -0.004932   0.012331  -0.006114   0.022712  -0.115748
     22      -0.049024   0.018629   0.029812   0.028552   0.005307   0.044589
     23       0.069044  -0.018652   0.001577   0.017652  -0.192676  -0.042379
     24       0.042325  -0.003385   0.043707  -0.000877   0.094675  -0.193660
     25      -0.021033   0.007849  -0.002712   0.037561  -0.069606   0.140527
     26      -0.005183   0.003341   0.013440  -0.012067   0.026818  -0.008335
     27       0.016850  -0.003311  -0.002488  -0.010262   0.003732   0.005635
     28       0.013681  -0.003547  -0.007911   0.005538   0.001680   0.017211
     29       0.002662  -0.002715  -0.063067   0.090460   0.063278  -0.049066
     30       0.017691  -0.011081  -0.039618  -0.038363  -0.012885   0.017959
     31       0.008294  -0.003086  -0.007515  -0.000391  -0.011276   0.026465
     32      -0.002091   0.000809  -0.010803   0.025149   0.039035  -0.030527
     33      -0.005516  -0.002926  -0.007602  -0.013311   0.001338  -0.086592
     34      -0.079007   0.004554  -0.050610  -0.034222  -0.059525  -0.052122
     35       0.022270  -0.000341   0.023454   0.016245   0.012112   0.011864
     36       0.015583  -0.003206  -0.009229  -0.005060   0.000287   0.036263
     37       0.019989  -0.010362  -0.024354  -0.030629   0.032721  -0.033462
     38       0.002641  -0.000720  -0.020281   0.033158   0.024498  -0.022362
     39       0.036891  -0.017079  -0.060425  -0.048956  -0.009189   0.099323
     40       0.003000  -0.004166  -0.008675  -0.012113   0.002504  -0.028264
     41       0.005833  -0.002637   0.005822  -0.034859  -0.028862   0.031825
     42      -0.013276  -0.001443  -0.000201  -0.000900   0.027577  -0.003072
     43      -0.002097  -0.028994   0.003636  -0.004023  -0.016667  -0.097757
     44      -0.027859   0.019426  -0.003503  -0.000187   0.034027   0.068460
     45      -0.022001   0.003189  -0.008896  -0.004734  -0.027355  -0.042482
     46      -0.065539   0.012913  -0.058158  -0.044620  -0.070415  -0.154669
     47       0.021227  -0.006006   0.026218   0.012201   0.049435   0.013106
     48       0.048456  -0.017187  -0.055258  -0.037978   0.004078   0.097664
     49       0.012803  -0.008692  -0.022225  -0.030158   0.026893  -0.041393
     50      -0.002782   0.001334   0.025847  -0.038022  -0.018905   0.028663
     51       0.042679  -0.020208  -0.069479  -0.059362  -0.001330   0.107152
     52       0.020806  -0.015016  -0.045520  -0.052958   0.024756  -0.026912
     53       0.001661  -0.001368   0.002429  -0.019626  -0.016665   0.027176
     54      -0.007126   0.005018   0.002947   0.006796   0.017163   0.048052
     55       0.023449   0.006882   0.021267   0.013012   0.051342   0.091050
     56      -0.048486   0.005243  -0.014828  -0.013453   0.049645   0.016608
     57      -0.009366   0.003079   0.009125   0.008194   0.019494   0.021247
     58       0.075573  -0.003801   0.052092   0.031257   0.083377   0.053673
     59      -0.047544   0.003123  -0.025604  -0.026288   0.024802  -0.049861
     60      -0.022959   0.011939   0.005324   0.013130   0.035699   0.120627
     61       0.058203   0.008872   0.042521   0.027705   0.079801   0.137671
     62      -0.039253  -0.001011  -0.021401  -0.021291   0.019948  -0.059560
     63       0.065151  -0.001228   0.082334   0.034420   0.104197  -0.309099
     64      -0.103089   0.044219   0.075571   0.050523   0.198137   0.104545
     65       0.080975  -0.023505  -0.006080   0.030036  -0.290588  -0.041419
     66       0.024305  -0.005842   0.012856  -0.006234  -0.012156  -0.105090
     67      -0.102068   0.037299   0.046553   0.009183   0.227000   0.080387
     68       0.082522  -0.023558  -0.003325   0.022263  -0.255097  -0.044041
     69       0.017486   0.004516   0.048415  -0.053481   0.411120  -0.305647
     70       0.023327  -0.011981  -0.094934   0.148780  -0.238791   0.150315
     71      -0.031858   0.015061   0.066038  -0.079013   0.145690  -0.023019
     72       0.104165  -0.025798   0.020708  -0.005391  -0.068709  -0.234357
     73      -0.036621   0.017252   0.068253  -0.068228   0.104798   0.064419
     74      -0.052128   0.023648   0.089460  -0.103829   0.266438  -0.054787
     75       0.040544  -0.015101  -0.054701  -0.031487  -0.022467   0.159975
     76       0.006719  -0.003466  -0.004653  -0.007310  -0.008699   0.011250
     77       0.014825  -0.003426   0.022054  -0.070371  -0.065196   0.073617
     78      -0.030443  -0.006200  -0.000104   0.001725   0.052240   0.040852
     79      -0.015044  -0.081210   0.021812  -0.000217  -0.018113  -0.230625
     80      -0.009184   0.039503  -0.009426  -0.003868   0.013110   0.070685
     81      -0.177578   0.043594   0.007431   0.009150   0.104866   0.186716
     82      -0.020164   0.026761   0.092968   0.089063   0.012225   0.012865
     83      -0.083314   0.025509   0.020211   0.048973  -0.007552   0.088445
     84      -0.041450   0.009843  -0.014795  -0.000686  -0.065369  -0.024225
     85      -0.119594   0.032148  -0.097084  -0.071684  -0.108157  -0.253777
     86       0.040537  -0.013107   0.043741   0.027675   0.054215   0.072138
     87       0.049021  -0.017414  -0.060581  -0.030242   0.006787   0.094711
     88      -0.007497   0.003805   0.022269   0.013564   0.032720  -0.106718
     89      -0.014344   0.006590   0.090427  -0.111813  -0.049164   0.056802
     90       0.010311  -0.001782   0.015998   0.009614   0.002005  -0.044092
     91       0.122401   0.006963   0.073795   0.046802   0.122164   0.035848
     92      -0.078212   0.004027  -0.037749  -0.031861   0.028390   0.012244
     93      -0.070373   0.033852   0.153451  -0.036465  -0.077562   0.093070
     94      -0.106594   0.034046   0.060828   0.116966  -0.041427   0.022597
     95       0.069596  -0.074789  -0.825640   0.875437   0.237407  -0.115414
     96      -0.039744   0.012113   0.056650  -0.001141   0.084159  -0.199972
     97       0.027138  -0.019678  -0.063628  -0.060536   0.030238  -0.016237
     98      -0.078797  -0.011748  -0.107937   0.133861   0.043135  -0.072398
     99       0.152694  -0.008618   0.030399   0.029775  -0.122216  -0.024707
    100       0.706803   0.040628   0.157532   0.089692   0.194308   0.192950
    101      -0.378265  -0.006593  -0.079817  -0.054128   0.033039  -0.014254
    102      -0.106156  -0.134673   0.032666   0.016687   0.098440   0.146494
    103      -0.201403  -0.889767   0.236098   0.103040  -0.023181   0.021760
    104       0.171082   0.383913  -0.093423  -0.027676  -0.133019  -0.084593
                 30         31         32         33         34         35    
      0      -0.027177   0.033895  -0.096413   0.129648   0.069614   0.003981
      1      -0.001704   0.107256   0.219509   0.023857   0.166205  -0.159854
      2       0.007369  -0.026211  -0.045307   0.000038  -0.021186   0.051681
      3      -0.002609  -0.000051   0.003854   0.158807  -0.109560   0.050954
      4       0.004612  -0.109663  -0.038630   0.042194  -0.140404   0.074257
      5      -0.006014   0.044551   0.008172  -0.026089   0.018389  -0.025563
      6       0.015640   0.021269   0.017531  -0.055134   0.132708  -0.068630
      7      -0.004708   0.043966   0.195948   0.007202  -0.132515   0.195703
      8       0.004273  -0.005833  -0.013108  -0.005683   0.022990  -0.011110
      9      -0.009013  -0.011355  -0.062430   0.114263  -0.112592  -0.044861
     10       0.011898   0.039000   0.016210   0.141421  -0.027100  -0.074075
     11      -0.002051  -0.001112   0.002503   0.006189  -0.010608  -0.003124
     12      -0.011789   0.150636  -0.047787  -0.069891  -0.086389  -0.017240
     13       0.072612  -0.057437   0.020841   0.040514   0.009715  -0.080982
     14      -0.010105  -0.111309   0.053305   0.022434  -0.044300  -0.182330
     15       0.040399  -0.094193   0.038036  -0.027783  -0.133382  -0.149066
     16       0.035248   0.042594  -0.003921  -0.018067   0.001343  -0.010631
     17      -0.044477   0.087560  -0.015326  -0.011449  -0.021024  -0.083165
     18      -0.020603  -0.037716   0.089767   0.005875  -0.009720  -0.044495
     19       0.015712  -0.006176  -0.090922   0.075264  -0.123874   0.071919
     20       0.006303  -0.113631   0.022766   0.076208   0.037537   0.058687
     21      -0.027516   0.023943   0.018525   0.106888   0.195527   0.063067
     22      -0.011988   0.106800   0.050079   0.066956   0.025956  -0.110317
     23      -0.002045  -0.039146   0.060487  -0.004671  -0.004879  -0.086410
     24      -0.018393  -0.062068   0.066460  -0.129601   0.008013  -0.083236
     25       0.032384  -0.068157  -0.168776  -0.163757   0.042089   0.097944
     26      -0.001020   0.005109   0.002823  -0.001765   0.008556   0.000106
     27       0.007114  -0.070895  -0.137577  -0.079823  -0.015825  -0.031920
     28       0.015645  -0.051672  -0.029508  -0.205290   0.095983   0.030351
     29      -0.009047   0.009142  -0.007142   0.004153  -0.017101  -0.010654
     30      -0.009833   0.014404  -0.099967   0.093890   0.058533  -0.018359
     31       0.009619  -0.000635   0.018444  -0.123533   0.197911  -0.034807
     32      -0.004217   0.009244   0.034414   0.033731  -0.008790  -0.007118
     33      -0.038740   0.065906  -0.027423   0.042496   0.150629   0.118669
     34      -0.072388   0.042646  -0.031454  -0.010144  -0.019372  -0.020459
     35       0.007678   0.155094  -0.056946  -0.095354  -0.117911  -0.004699
     36       0.016185  -0.074564  -0.134576  -0.122362  -0.009580  -0.058762
     37      -0.001619  -0.009538   0.073842  -0.034213  -0.140845   0.113628
     38      -0.004735   0.003742  -0.007922  -0.011584  -0.011129  -0.034870
     39       0.020606   0.043702   0.151295   0.003849  -0.005888   0.054217
     40      -0.008667  -0.022676  -0.147689  -0.038058   0.204099  -0.106312
     41       0.003602   0.002871   0.005344  -0.001277  -0.011428   0.011992
     42       0.031299  -0.009390  -0.017454   0.000532   0.070233   0.206243
     43       0.133661   0.027060   0.002902  -0.072080  -0.088129  -0.028462
     44      -0.065208   0.078310  -0.053338  -0.050946  -0.080322   0.029087
     45      -0.036037   0.070230  -0.012826  -0.025670   0.009602  -0.057238
     46      -0.106205  -0.030473   0.019465  -0.097227  -0.055876   0.079752
     47       0.013393   0.196229  -0.100545  -0.028170   0.015263   0.142058
     48       0.035618  -0.040725   0.086283  -0.182618  -0.101477   0.091181
     49      -0.009943  -0.025920  -0.090919   0.041606  -0.082453  -0.023181
     50       0.007737  -0.008971   0.008281  -0.024021   0.000103   0.015688
     51       0.025963   0.034163   0.153934   0.004499  -0.052873   0.057030
     52      -0.014347   0.004961  -0.115133   0.157560  -0.032933  -0.101157
     53       0.004334   0.001468   0.003068  -0.009984   0.000463   0.017378
     54      -0.025413  -0.037627  -0.000918  -0.003515   0.036171   0.150009
     55      -0.203564  -0.103854   0.048147  -0.016946  -0.030888  -0.045189
     56       0.124203  -0.121937   0.037309   0.060845   0.031626  -0.050620
     57       0.025662   0.041889  -0.011686   0.009877   0.034421  -0.047829
     58       0.179674   0.050005  -0.032791   0.073403   0.094692   0.079922
     59      -0.076622  -0.078963   0.020802   0.035551   0.140748   0.173959
     60      -0.001411  -0.105833   0.032829   0.003045  -0.054576  -0.061603
     61      -0.190623  -0.017266  -0.004801   0.051843   0.080793   0.056766
     62       0.100591  -0.096773   0.031495   0.045103   0.093858   0.098044
     63      -0.040787  -0.043841   0.171817  -0.025295  -0.061815  -0.146057
     64       0.020129   0.052105  -0.160619   0.086807  -0.180872   0.154053
     65       0.002018  -0.130344   0.054585   0.069332   0.040375   0.019880
     66      -0.017644  -0.062216   0.090480   0.188681   0.358681   0.117098
     67      -0.011234   0.227502   0.063721   0.013147   0.027602  -0.167363
     68       0.000631  -0.085456   0.072804   0.024623   0.030324  -0.061019
     69      -0.039700   0.039990   0.128581  -0.360418   0.032218  -0.261317
     70       0.039652  -0.151104  -0.206877  -0.072280   0.091089   0.213865
     71      -0.006927   0.060176   0.030323  -0.068563  -0.018119  -0.079272
     72      -0.013923  -0.152043   0.115469  -0.158777   0.179890  -0.028338
     73       0.018656  -0.000793  -0.079541  -0.301289   0.071499  -0.030267
     74      -0.015516   0.112250   0.059414  -0.110622  -0.051518  -0.144312
     75       0.047880   0.031290   0.281173  -0.210545   0.082437   0.129145
     76       0.007925  -0.031298  -0.076262  -0.161901   0.253414  -0.065307
     77       0.013222  -0.012227  -0.007463  -0.048607  -0.002440   0.022729
     78       0.134526  -0.151798   0.038845   0.046237   0.081758   0.167317
     79       0.503471   0.181450  -0.036888  -0.087070  -0.102116  -0.021559
     80      -0.268395   0.151443  -0.088814  -0.083837  -0.085025   0.057262
     81      -0.000058   0.166064  -0.048553   0.132178  -0.091308   0.007035
     82       0.006244  -0.007110  -0.058493   0.092258  -0.150286   0.060293
     83      -0.005145   0.094998   0.011430   0.059720  -0.002062  -0.021371
     84      -0.037805   0.164352  -0.041896  -0.134585  -0.191663  -0.197395
     85      -0.082918  -0.058164   0.059628  -0.160808  -0.124016   0.068997
     86       0.001236   0.248257  -0.133179  -0.039890  -0.030557   0.093981
     87       0.034771  -0.041988   0.075999  -0.185370  -0.100092   0.083010
     88      -0.019285  -0.113458  -0.330197  -0.065590  -0.024532  -0.132710
     89       0.016448  -0.016524   0.040016  -0.011673   0.010957   0.044040
     90       0.061458   0.215257  -0.077264  -0.031363   0.028412  -0.008083
     91       0.591422   0.062819  -0.032660   0.120067   0.092537   0.046535
     92      -0.226337  -0.230641   0.076578   0.056310   0.144761   0.149656
     93       0.017467   0.005603  -0.011870  -0.062008   0.119454  -0.073541
     94      -0.003070   0.142136   0.382210   0.050660   0.029207   0.216494
     95      -0.012549   0.027171   0.026125   0.009242   0.004936  -0.022113
     96      -0.040045  -0.059954  -0.247281   0.169335  -0.166869  -0.107710
     97      -0.011473   0.003882  -0.120857   0.186062  -0.071625  -0.122252
     98      -0.012100  -0.009289  -0.039692   0.018877  -0.039848  -0.019129
     99      -0.049481   0.252403  -0.067507  -0.120770  -0.200990  -0.189959
    100      -0.027901  -0.157558   0.041371   0.090689   0.100511   0.035986
    101       0.060680  -0.203350   0.071862   0.068042   0.061026  -0.023288
    102       0.041509  -0.230741   0.061755   0.034803   0.000947   0.062549
    103      -0.131694   0.056444  -0.004093  -0.043788  -0.055762  -0.094226
    104       0.011762   0.168289  -0.029743  -0.043366  -0.090785  -0.193500
                 36         37         38         39         40         41    
      0       0.144657   0.011448   0.080463  -0.001442  -0.002544  -0.305232
      1      -0.117388   0.012348   0.107125   0.012618   0.170030   0.050144
      2       0.019616   0.075589  -0.039875   0.023505  -0.019980  -0.010364
      3      -0.026531   0.002037  -0.041753  -0.003424  -0.035190   0.020867
      4      -0.029806  -0.001671  -0.075141  -0.002514  -0.090106   0.016748
      5       0.005262   0.003140   0.004969   0.002651   0.000615  -0.009732
      6      -0.104376   0.004354  -0.081579  -0.006486  -0.062671   0.048424
      7       0.192486   0.005659   0.046273   0.003345   0.005357  -0.114969
      8      -0.023183  -0.060957   0.000372   0.048409  -0.008049   0.004067
      9      -0.093008  -0.004548  -0.024193   0.006609   0.007465   0.109132
     10      -0.178228  -0.004553  -0.121628  -0.003035  -0.092653   0.092609
     11      -0.009392  -0.020916   0.006952  -0.072056   0.004211   0.001141
     12      -0.045720   0.007342   0.038539   0.001050  -0.019240  -0.006306
     13       0.111941  -0.008007   0.009057  -0.003300  -0.047674   0.025879
     14       0.153507  -0.021698  -0.080401   0.000295  -0.014215  -0.050187
     15      -0.034111   0.017527   0.068453   0.005904  -0.047779  -0.109050
     16       0.036674  -0.012982  -0.066126  -0.000751   0.030950   0.012006
     17       0.118022  -0.018346  -0.050497  -0.003291  -0.001523   0.043077
     18      -0.053942   0.016716  -0.007143   0.008992  -0.075841  -0.009930
     19       0.012652  -0.012360  -0.054706  -0.006866   0.025852   0.006815
     20      -0.009070   0.003422   0.057727  -0.005048   0.003607   0.041992
     21       0.105632  -0.007644  -0.032796   0.000277   0.021644  -0.056687
     22       0.004592   0.034776   0.126573   0.010966   0.114367  -0.039396
     23      -0.043686   0.032984   0.092441   0.002210   0.024852  -0.037472
     24      -0.026523   0.017565   0.073111   0.007734  -0.062880   0.004618
     25       0.089354  -0.023434  -0.059361  -0.008392  -0.038711  -0.044138
     26      -0.002445   0.000091  -0.000480   0.006748   0.010163  -0.002190
     27       0.025269  -0.008496   0.077557  -0.004609   0.082753   0.005601
     28       0.046681  -0.006543  -0.021155  -0.000499  -0.050317  -0.008853
     29       0.009183   0.008908  -0.000666   0.052699  -0.005247  -0.029502
     30       0.076032   0.047013   0.033248   0.007429   0.006112  -0.223702
     31      -0.028082  -0.008703  -0.059718  -0.002551  -0.089489  -0.052617
     32      -0.063563  -0.345920   0.064925  -0.058047  -0.030869  -0.041384
     33       0.105777  -0.020809  -0.046674  -0.008096   0.000779   0.098711
     34       0.102460   0.019783   0.265068  -0.013119  -0.203642   0.150294
     35      -0.109678  -0.004006  -0.084386   0.008124   0.049097  -0.105509
     36      -0.015906  -0.049532   0.100371   0.008246   0.153254   0.106562
     37       0.133034   0.012060   0.089472  -0.006896   0.095991   0.007435
     38       0.014816   0.314452  -0.045209  -0.125704   0.021034   0.064417
     39      -0.002150   0.001320  -0.057046   0.010475  -0.070617  -0.055695
     40      -0.041918   0.007917  -0.035882  -0.007992  -0.075092  -0.116757
     41       0.012032   0.030318  -0.007985  -0.092594   0.003041  -0.018617
     42      -0.182701   0.020495   0.050097   0.001914   0.013753   0.003968
     43      -0.072354  -0.000718  -0.044419   0.004465  -0.017325  -0.022550
     44      -0.087288   0.014174   0.088497   0.001952  -0.058636  -0.054775
     45       0.186536  -0.047450  -0.176538  -0.008233   0.051081   0.151922
     46      -0.171990   0.002841  -0.059779   0.005720  -0.003989  -0.022035
     47      -0.066667   0.005795   0.062338  -0.001701  -0.032268  -0.002142
     48       0.065077  -0.014864   0.061784   0.003761   0.117885   0.133246
     49       0.014416  -0.009147   0.089122  -0.003547   0.131040   0.058153
     50      -0.000764  -0.043843   0.007647  -0.082316   0.009701  -0.003654
     51      -0.044582  -0.003607  -0.089946  -0.040880  -0.084620   0.023229
     52      -0.108998  -0.001015  -0.014259   0.020391   0.014454   0.049719
     53       0.027766   0.040763  -0.017170   0.421114  -0.018053   0.031738
     54      -0.180859   0.023317   0.051088   0.003890   0.041399  -0.035598
     55      -0.035456  -0.013796  -0.160430   0.009111   0.153214  -0.184533
     56       0.078643   0.001748   0.057285  -0.004265  -0.073922   0.072305
     57       0.193382  -0.042165  -0.143419  -0.009387   0.060254   0.172133
     58       0.012886   0.009978   0.072609  -0.003275   0.000063   0.034570
     59      -0.048698  -0.006457  -0.062898  -0.003136   0.084689   0.111728
     60      -0.033331   0.014611   0.065018   0.002137  -0.032736  -0.020901
     61       0.041021   0.004417   0.085182  -0.007098  -0.078836   0.155672
     62      -0.056926   0.003835  -0.037125   0.001676   0.089056  -0.014819
     63      -0.121583   0.045263   0.039522   0.011572  -0.152908  -0.019493
     64       0.046543  -0.036819  -0.200369  -0.007157  -0.013707   0.017698
     65      -0.030156   0.014534   0.103476  -0.004339   0.000899   0.036904
     66       0.132132   0.007747  -0.006641   0.001092   0.065376   0.021061
     67      -0.012276   0.072758   0.071154   0.033208   0.170979  -0.094531
     68      -0.035987   0.027961   0.111559  -0.002339   0.022978  -0.009304
     69      -0.062372   0.042996   0.059051   0.022508  -0.189600  -0.083017
     70       0.147192  -0.042374  -0.045421   0.077106   0.014771  -0.026627
     71      -0.038867   0.011202  -0.009049  -0.040674  -0.030065  -0.018931
     72      -0.004474   0.025286   0.087381  -0.000578  -0.120884   0.004266
     73       0.032380   0.005861  -0.073958  -0.075154  -0.149035  -0.082546
     74      -0.066858   0.019352  -0.020156  -0.048996  -0.061311  -0.037236
     75       0.022495  -0.052494  -0.118227   0.064945  -0.175261  -0.047598
     76      -0.027606   0.036553  -0.084289  -0.038796  -0.127699  -0.101206
     77       0.061596   0.554340  -0.109626  -0.637162   0.071151   0.033742
     78      -0.210298   0.030998   0.066178   0.004451   0.046016  -0.020711
     79      -0.109768  -0.013596  -0.160350   0.010439   0.068965  -0.073799
     80      -0.047324   0.008676   0.109894  -0.002154  -0.113989  -0.020345
     81       0.021217  -0.008796  -0.043045  -0.003504   0.079260  -0.019348
     82      -0.005603  -0.006092  -0.083839  -0.004136  -0.011541  -0.000456
     83       0.012687   0.003024  -0.004607   0.000486   0.049401  -0.011763
     84       0.151668  -0.052390  -0.214791  -0.001681   0.051636   0.034630
     85      -0.350597  -0.016108  -0.385937   0.029032   0.358936  -0.400043
     86       0.008068   0.013618   0.213547  -0.010988  -0.216136   0.145894
     87       0.068912   0.038408   0.055732   0.051173   0.125385   0.152386
     88       0.029569  -0.047953   0.255594  -0.026541   0.351488   0.128958
     89      -0.082116  -0.603520   0.090033  -0.574741  -0.017039  -0.138902
     90       0.228114  -0.064369  -0.233087  -0.011158   0.098156   0.181205
     91      -0.052784   0.014687  -0.034940   0.011142   0.234914  -0.276965
     92      -0.061165   0.011351   0.045696  -0.005769  -0.015933   0.194533
     93      -0.097957   0.014187  -0.062366   0.000871  -0.031328   0.065253
     94       0.119089   0.010599  -0.155358   0.008510  -0.274282  -0.222918
     95      -0.038572  -0.149309   0.022229  -0.020854  -0.007896  -0.016759
     96      -0.074145  -0.027690   0.098086   0.011859   0.156349   0.154627
     97      -0.166260  -0.003217  -0.037398  -0.001490   0.016124   0.132339
     98       0.011220   0.140385  -0.003138  -0.091155   0.035042   0.032959
     99       0.076507  -0.010288  -0.004327   0.000830  -0.061445  -0.036766
    100       0.033503   0.001531   0.021076  -0.002876  -0.013934   0.048690
    101       0.042125  -0.005110  -0.037755   0.000356   0.023969  -0.022262
    102      -0.199322   0.043272   0.134741   0.007343   0.000239  -0.087472
    103       0.088022  -0.021041  -0.093171  -0.000091   0.023631  -0.020444
    104       0.204750  -0.031434  -0.081236  -0.004227  -0.031487   0.036268
                 42         43         44         45         46         47    
      0       0.027629   0.065544   0.066047  -0.002410  -0.007308   0.043876
      1      -0.024441   0.024502  -0.036578  -0.000263   0.000772   0.016201
      2      -0.037080  -0.003961  -0.015783   0.006509   0.022184  -0.016950
      3       0.006580  -0.009384  -0.013539   0.001423   0.000529  -0.043961
      4      -0.000149  -0.017651   0.000937   0.000602  -0.000520  -0.027995
      5      -0.007009  -0.000085   0.010582  -0.000365  -0.000189   0.006670
      6       0.004887  -0.017874  -0.005884  -0.001052   0.002807  -0.000452
      7       0.000984   0.021862   0.019151   0.000872  -0.002537   0.005970
      8      -0.045085  -0.008835   0.000764   0.015893  -0.018300   0.002089
      9      -0.011371  -0.023963   0.007203  -0.003908  -0.000800   0.036080
     10      -0.010724  -0.034744   0.018083   0.000831   0.000868   0.039999
     11       0.012208   0.001244   0.000961   0.030791   0.007811   0.000494
     12      -0.000555   0.002502   0.050671  -0.000648  -0.002457  -0.020138
     13      -0.008354   0.030326  -0.080847   0.000796   0.002884   0.017559
     14      -0.003970  -0.008924  -0.162019   0.001514   0.005312   0.030442
     15      -0.002519  -0.002399   0.066832  -0.003364  -0.013931  -0.208435
     16       0.006390  -0.039739  -0.014272   0.000809   0.002998   0.044581
     17      -0.002694   0.014516  -0.005438   0.000354   0.001460   0.022155
     18      -0.024778  -0.016815   0.002561  -0.000378   0.000123   0.001309
     19       0.015750   0.017184   0.010494   0.000390  -0.000448   0.000325
     20       0.011872  -0.018628  -0.076461   0.001525   0.003733  -0.032297
     21      -0.008751   0.019315  -0.154616  -0.000384  -0.000616  -0.083174
     22      -0.018874   0.013434   0.054989  -0.000081   0.006551   0.055792
     23       0.023271   0.014379   0.156387   0.000246   0.002181   0.108801
     24      -0.029996  -0.039389   0.047937  -0.003009   0.000320   0.079977
     25       0.021186   0.005804   0.094313  -0.004918  -0.004998   0.192319
     26      -0.060337  -0.004318  -0.048395  -0.002473   0.000626  -0.032291
     27       0.025639   0.017631   0.004283  -0.000886  -0.001263   0.014096
     28      -0.005665  -0.013690   0.007802  -0.000321   0.000142   0.019480
     29      -0.282990  -0.038969   0.043304  -0.002721   0.000370   0.010540
     30      -0.013365   0.055708   0.043728   0.001853   0.006278   0.011309
     31       0.020064   0.001455  -0.042908   0.002094  -0.001154  -0.097172
     32       0.295366   0.045054  -0.009747  -0.024089  -0.091505   0.014579
     33       0.003394  -0.044446  -0.083008   0.000090  -0.000207  -0.045554
     34       0.019589  -0.242498   0.011969  -0.000147  -0.000614   0.000480
     35      -0.012105   0.104466  -0.005189  -0.000214  -0.001021  -0.014079
     36      -0.020371   0.004754  -0.040939   0.005881  -0.005788  -0.041138
     37       0.020833   0.015231  -0.021088  -0.002193   0.003443  -0.023979
     38       0.315655   0.040652  -0.025983  -0.052711   0.069014  -0.014126
     39       0.012526   0.006523   0.014163  -0.009714  -0.017214   0.006931
     40       0.015853   0.021015  -0.037773   0.008088   0.007777  -0.153264
     41      -0.096117  -0.011284   0.027527   0.092623   0.147303  -0.005362
     42      -0.002666   0.020213  -0.154595   0.003793   0.015470   0.198485
     43      -0.016401   0.096212  -0.022023   0.000309   0.000869   0.003200
     44      -0.000240  -0.048287  -0.128615   0.002014   0.007706   0.091577
     45      -0.000187   0.014013   0.033840   0.001007   0.003652   0.067844
     46      -0.022139   0.146250  -0.018779  -0.000590  -0.004274  -0.084359
     47       0.004768  -0.073893  -0.038369  -0.001595  -0.007121  -0.142588
     48       0.021434  -0.002914  -0.073766  -0.010271   0.013976  -0.103895
     49      -0.003833   0.011971  -0.029032   0.006814  -0.003954  -0.020920
     50      -0.095320  -0.012789  -0.007215   0.147602  -0.096839   0.000684
     51      -0.008868  -0.018262   0.004825   0.013478   0.003016  -0.005294
     52      -0.001761  -0.004366   0.006005  -0.006762  -0.001768   0.020521
     53       0.048195   0.002287  -0.005938  -0.122788  -0.020387   0.001854
     54       0.009996  -0.045757  -0.045384   0.001974   0.008527   0.127044
     55       0.041950  -0.268300  -0.021121   0.000138   0.000298   0.003189
     56      -0.020109   0.124229  -0.043017   0.001085   0.004500   0.061543
     57       0.008495  -0.035034   0.139278  -0.000335  -0.001577   0.017067
     58       0.017730  -0.119557   0.086615  -0.000995  -0.005222  -0.058896
     59       0.003574   0.045096   0.242816  -0.003046  -0.011064  -0.104642
     60      -0.008264   0.055893   0.034822  -0.000720  -0.002272  -0.024210
     61      -0.041832   0.302136   0.050868  -0.000642  -0.000735   0.004659
     62       0.026104  -0.135765   0.122577  -0.000931  -0.003701  -0.018535
     63       0.004935  -0.046759   0.171697   0.000787   0.000309   0.092038
     64      -0.014436   0.025938  -0.123263   0.000075  -0.002980  -0.142704
     65       0.023350  -0.025724  -0.011819   0.001706   0.004396   0.020252
     66      -0.009169  -0.003921  -0.302185   0.001494   0.006007  -0.111367
     67      -0.077350   0.058166   0.042529   0.000263   0.015623   0.034894
     68       0.036509   0.000880   0.128183   0.000838   0.001887   0.109377
     69      -0.087937  -0.066572   0.344156  -0.009953  -0.003743   0.318155
     70      -0.320187  -0.038538  -0.083255  -0.015671  -0.005693   0.086474
     71       0.129398   0.018827   0.075448   0.003254   0.000332   0.045545
     72       0.005476  -0.058773  -0.089908   0.000351   0.004684   0.073788
     73       0.284559   0.023373   0.266990   0.003480  -0.004852   0.329728
     74       0.159483   0.020960   0.177433   0.003764  -0.001942   0.093908
     75       0.058272  -0.007890  -0.030418   0.054801   0.083226  -0.145721
     76      -0.000066   0.005899  -0.079360  -0.023637  -0.044360  -0.232010
     77      -0.461378  -0.061169  -0.108903  -0.510999  -0.816157   0.076308
     78      -0.009266   0.114679  -0.173642   0.005964   0.025317   0.371853
     79      -0.074701   0.570484  -0.051931  -0.001498  -0.003021  -0.063962
     80       0.023338  -0.275490  -0.110459   0.000788   0.000758  -0.033290
     81       0.011495   0.037440   0.036142   0.000563  -0.001468  -0.012457
     82       0.011498   0.012571   0.035771   0.000838  -0.001698  -0.010979
     83       0.006795   0.016829   0.030856   0.000441  -0.000707   0.014221
     84      -0.004526   0.011691  -0.112314   0.003354   0.014519   0.206168
     85      -0.005163   0.160828  -0.055139  -0.002369   0.000143  -0.023723
     86      -0.005489  -0.082905  -0.071786   0.000152  -0.005441  -0.123442
     87       0.056838   0.001081  -0.083108   0.083208  -0.045523  -0.102471
     88      -0.006079   0.038508  -0.095491  -0.033390   0.023191  -0.099855
     89      -0.460919  -0.056548   0.059083  -0.820722   0.521453  -0.049942
     90       0.013519  -0.086071   0.034429   0.000409   0.001928   0.029051
     91       0.066337  -0.352541   0.117797  -0.003336  -0.003787  -0.006591
     92      -0.014736   0.155908   0.329592  -0.003143  -0.015064  -0.137814
     93       0.009153  -0.014445  -0.014534   0.001639   0.001839  -0.008401
     94      -0.022201  -0.013305   0.083649   0.000028  -0.005822   0.080708
     95      -0.058383  -0.007904   0.010276  -0.007412  -0.005717  -0.000811
     96      -0.012258  -0.008825  -0.010768  -0.007008   0.005140   0.037849
     97      -0.010038  -0.024766   0.005039   0.000480   0.000578   0.044460
     98       0.029203   0.003691  -0.007826   0.048258  -0.032727   0.007331
     99      -0.007216   0.008872   0.035476  -0.002277  -0.009977  -0.153188
    100      -0.009372   0.067660  -0.075097   0.001922   0.007878   0.103649
    101       0.003687  -0.026232  -0.152198   0.003111   0.012669   0.158770
    102       0.005538  -0.007398   0.178961  -0.003614  -0.013598  -0.162442
    103       0.009120  -0.077986  -0.056780   0.000820   0.002652   0.023032
    104      -0.008935   0.030766  -0.061804   0.000403   0.000919  -0.007229
                 48         49         50         51         52         53    
      0       0.014094   0.005549  -0.005727   0.008739   0.002718  -0.022522
      1       0.004438  -0.050479  -0.021924   0.002385   0.012054   0.181703
      2       0.001467  -0.000256  -0.002078   0.013497   0.003144   0.062972
      3       0.014052   0.058438   0.005097  -0.015135  -0.002414   0.022448
      4       0.010279   0.048506   0.004679  -0.012551  -0.001785   0.036690
      5       0.000858   0.001000  -0.000461  -0.006066  -0.000546  -0.001744
      6      -0.005693  -0.007668   0.000643  -0.014709  -0.002225  -0.024937
      7       0.006796   0.011195   0.000089   0.018780   0.002279   0.011217
      8       0.000289   0.002550   0.000063  -0.005466  -0.000642  -0.002442
      9      -0.016842  -0.043499  -0.000410  -0.010611  -0.002315  -0.065245
     10      -0.018926  -0.041886   0.002258  -0.004026  -0.002762  -0.088416
     11      -0.001629  -0.004593  -0.000084   0.000718   0.000033  -0.002356
     12      -0.000973   0.008349   0.002514   0.027445   0.001035  -0.030351
     13      -0.005649  -0.007587  -0.018826  -0.025597  -0.004789   0.028641
     14      -0.000814  -0.028080  -0.003618  -0.051161  -0.001131   0.050657
     15      -0.030795  -0.098726  -0.008132  -0.037724  -0.003072   0.011392
     16       0.025818   0.011849   0.000673   0.011819  -0.004029  -0.002168
     17      -0.004798   0.016875   0.002058   0.007486   0.003002   0.000829
     18      -0.004094  -0.010582  -0.000948  -0.000086   0.001664  -0.026390
     19       0.012575   0.010688  -0.007232   0.005022   0.003754  -0.011394
     20      -0.027276  -0.030528   0.020558   0.065201  -0.001396   0.027143
     21      -0.028596  -0.108290  -0.020241  -0.085471  -0.008085  -0.223117
     22      -0.014189  -0.011419   0.015983   0.037043  -0.011330  -0.238741
     23       0.030781   0.070550  -0.010286  -0.134371  -0.009793  -0.086083
     24      -0.036645  -0.074205   0.019634   0.128665   0.007076   0.027706
     25      -0.046329  -0.183177  -0.022264  -0.058240  -0.000521   0.009819
     26      -0.014380  -0.042664   0.005231   0.123259   0.010906  -0.033402
     27      -0.000233  -0.013473  -0.000632   0.046305   0.006281   0.081821
     28      -0.012763  -0.025957   0.001638  -0.017069  -0.003784  -0.054663
     29       0.016022   0.047828  -0.002015  -0.064459  -0.005517   0.018418
     30       0.023398   0.028082  -0.006132   0.034379   0.008262   0.136545
     31       0.023277   0.090234   0.008191   0.010234  -0.000664  -0.001091
     32      -0.002111  -0.006550   0.001753   0.029774   0.002091   0.005939
     33      -0.026161  -0.057221  -0.007260  -0.103139  -0.007087   0.026229
     34      -0.049123   0.059195   0.060892  -0.000947  -0.007079   0.025094
     35       0.021696  -0.021223  -0.022935   0.028776   0.004745  -0.052726
     36       0.011927   0.029372  -0.003069  -0.018408  -0.000244   0.034528
     37       0.006202   0.014724  -0.001203  -0.009667  -0.000567   0.006441
     38      -0.007844  -0.024434   0.000370   0.021925   0.002062   0.002961
     39       0.006234   0.009366  -0.001786   0.020978   0.005593   0.197146
     40       0.052409   0.184094   0.016484   0.038940  -0.000427  -0.041666
     41      -0.003980  -0.017135  -0.002147  -0.001944   0.000912   0.025158
     42       0.024973   0.067535  -0.028116  -0.008110  -0.006276   0.029106
     43      -0.012493   0.031077  -0.142913   0.061999  -0.026098  -0.059232
     44       0.019258   0.027724   0.075271   0.051291   0.017132  -0.098189
     45       0.028469   0.039945   0.004501   0.031983   0.020483  -0.002432
     46       0.065977  -0.098313  -0.025880  -0.045774   0.100789   0.040624
     47      -0.067197  -0.072020  -0.003402  -0.077048  -0.049504   0.151055
     48       0.019367   0.079260   0.004245  -0.050834  -0.009001  -0.200379
     49       0.006868   0.006081  -0.006327  -0.020930   0.001275   0.103297
     50       0.001984   0.010310   0.000834  -0.004434  -0.001061  -0.025739
     51      -0.001639   0.008060   0.003783   0.009841  -0.000006   0.021523
     52      -0.004248  -0.020083  -0.003429  -0.004676   0.001259   0.052915
     53       0.002520   0.008863   0.000655  -0.003684  -0.000501  -0.001042
     54       0.023778   0.049880   0.010990  -0.001130   0.003275   0.017805
     55       0.020697  -0.019101   0.051764  -0.002888   0.024295  -0.015743
     56       0.000536   0.033357  -0.020599   0.017209  -0.009803  -0.017942
     57       0.029642   0.038295   0.012693   0.064383  -0.011704   0.047275
     58       0.099292  -0.073655   0.008148   0.020975  -0.090674  -0.005729
     59      -0.054513   0.024715   0.003917   0.025902   0.041750  -0.001207
     60      -0.016651   0.005426   0.003339   0.012050   0.001105  -0.023509
     61      -0.080962   0.053727   0.014525   0.002282   0.006016  -0.008923
     62       0.039816  -0.001348  -0.001643   0.028043  -0.001639  -0.040615
     63       0.038972   0.149590  -0.009619  -0.260469  -0.024685   0.008373
     64       0.006363  -0.023202   0.000946   0.162488   0.022424   0.051260
     65      -0.018087   0.006415   0.017292  -0.015855  -0.010627   0.013043
     66      -0.055751  -0.183767  -0.026870  -0.166578  -0.013352  -0.228026
     67       0.004902  -0.058156   0.002937   0.149288   0.014538  -0.313521
     68       0.022541   0.065682  -0.008825  -0.175432  -0.015443  -0.056018
     69      -0.004844  -0.003450  -0.004701  -0.224602  -0.021034   0.066312
     70      -0.101768  -0.328528   0.002749   0.331263   0.031244  -0.085667
     71       0.020187   0.047500  -0.010909  -0.128382  -0.009629   0.022809
     72      -0.131256  -0.304610   0.052098   0.434367   0.021983  -0.091840
     73      -0.022942  -0.113955  -0.036840  -0.371126  -0.029891   0.034648
     74       0.054854   0.138724  -0.023470  -0.311098  -0.023141   0.051003
     75       0.035022   0.148800   0.017456   0.041925   0.002157   0.266638
     76       0.071565   0.274199   0.028332   0.050450  -0.002855  -0.011534
     77       0.020696   0.068074   0.002564  -0.005890  -0.001432   0.020186
     78       0.070634   0.118620   0.168529  -0.029745   0.017623   0.148812
     79       0.046597  -0.205727   0.857835  -0.142183   0.098164  -0.056745
     80      -0.038029   0.056331  -0.401975   0.131393  -0.041712  -0.207994
     81       0.039686   0.064942  -0.020032  -0.071946  -0.000579  -0.099564
     82       0.032523   0.068807  -0.014097  -0.072696  -0.002489  -0.055457
     83       0.017082   0.023009  -0.013310  -0.059391  -0.002576  -0.065591
     84      -0.062875   0.154736   0.039680   0.093853  -0.106912   0.018698
     85      -0.573112   0.233858   0.131254  -0.008190  -0.670803   0.173671
     86       0.220912  -0.196381  -0.068952  -0.071061   0.292079   0.100431
     87       0.018970   0.079728   0.004366  -0.051558  -0.009194  -0.204637
     88       0.030786   0.056727  -0.015381  -0.067273   0.001977   0.274901
     89       0.012699   0.029074  -0.001267  -0.027448  -0.002446  -0.025964
     90      -0.108209   0.091527  -0.004049  -0.019047   0.102644   0.274521
     91      -0.646295   0.407842  -0.040384  -0.064250   0.580363  -0.138633
     92       0.278187  -0.162813   0.032281   0.121875  -0.250313  -0.150641
     93      -0.003553  -0.003452  -0.000062  -0.015380  -0.001812  -0.008757
     94      -0.019873  -0.045943   0.006831   0.029754  -0.001349  -0.140086
     95       0.005926   0.017458  -0.000740  -0.016452  -0.001305   0.005170
     96      -0.016463  -0.061374  -0.008541  -0.042651  -0.002722  -0.044036
     97      -0.019812  -0.058090  -0.003720  -0.027815  -0.003167  -0.076439
     98      -0.002992  -0.010399  -0.001057  -0.002330   0.000029   0.000348
     99      -0.023263  -0.065338  -0.001352   0.002852  -0.001037  -0.020998
    100       0.025925   0.024567  -0.000705  -0.013251  -0.011016   0.027012
    101       0.015688   0.045440  -0.004649  -0.029357   0.002817   0.043975
    102      -0.022589  -0.044645  -0.004190   0.005523   0.001421  -0.066200
    103       0.003354   0.002552  -0.018347  -0.004874   0.002238   0.026535
    104      -0.003758  -0.018366   0.005542  -0.016372  -0.002137   0.040973
                 54         55         56         57         58         59    
      0      -0.021929  -0.055606  -0.120531   0.025645   0.127168  -0.091193
      1      -0.073914  -0.144247   0.010280  -0.054437   0.071343  -0.004885
      2      -0.027259  -0.046610  -0.006664   0.010374   0.027674  -0.037148
      3      -0.026131  -0.016952  -0.083655   0.007708   0.010203   0.144154
      4      -0.032014  -0.011998  -0.092720  -0.027793   0.044570   0.186988
      5      -0.010107  -0.001032  -0.054260  -0.023239  -0.004119   0.086019
      6      -0.020365   0.033953  -0.042284   0.019262   0.035017  -0.027300
      7       0.050218  -0.093744   0.085244  -0.045341  -0.088886   0.080491
      8      -0.005148   0.007036  -0.007248   0.007970   0.007039  -0.005829
      9       0.025221  -0.051822   0.006414  -0.009988   0.002520   0.010477
     10       0.046165  -0.077410   0.017032  -0.015804  -0.002831   0.016947
     11       0.000712  -0.001205  -0.000343  -0.001058   0.000382   0.000256
     12      -0.045846  -0.001583   0.009644  -0.001143  -0.001150  -0.006275
     13       0.040423   0.000633  -0.007102   0.001089   0.002042   0.005067
     14       0.070604   0.000511  -0.011686   0.002552   0.004273   0.009263
     15       0.006896  -0.004563   0.010866  -0.000038   0.009052   0.011221
     16      -0.001720   0.000714  -0.003488   0.000834  -0.003103  -0.003367
     17      -0.001412  -0.000247  -0.003491   0.000888  -0.003205  -0.003461
     18      -0.056001  -0.013351  -0.062284  -0.101323  -0.167147  -0.303714
     19       0.083485   0.038760   0.229521   0.055514   0.045792  -0.274722
     20      -0.008207  -0.073319   0.012354   0.202936  -0.077414  -0.053972
     21      -0.093993   0.079594   0.094799  -0.011284  -0.032635   0.056301
     22       0.145607   0.127275  -0.066419   0.119000  -0.161857   0.081228
     23       0.093056   0.122396   0.059970  -0.131798   0.070440   0.016063
     24       0.114491   0.018797   0.115087   0.076020   0.117494   0.022625
     25      -0.056086  -0.049981  -0.040659  -0.058071  -0.073790  -0.000717
     26       0.036301   0.065914  -0.071922  -0.184524   0.005081  -0.034756
     27       0.054018  -0.046386   0.141433  -0.063839  -0.099465   0.085284
     28      -0.020904   0.043471  -0.044542   0.031749   0.042563  -0.018279
     29      -0.016432  -0.037688   0.034885   0.093772  -0.020827   0.002847
     30      -0.005333  -0.060901   0.036209  -0.015939  -0.044395   0.038198
     31      -0.012077   0.047255  -0.010014   0.005256   0.031228  -0.032135
     32       0.011363   0.000968  -0.004937  -0.009590  -0.007621   0.002954
     33       0.042077   0.013965   0.042657  -0.033450   0.024926   0.038308
     34      -0.034150  -0.001071   0.003268  -0.047489   0.004933  -0.032037
     35      -0.017723   0.014231  -0.009481   0.011636  -0.008243   0.002588
     36      -0.001530  -0.022774   0.058581  -0.023467  -0.089587   0.088006
     37      -0.029929   0.057376  -0.045992   0.025171   0.045991  -0.037442
     38       0.005568  -0.000293   0.004724  -0.022225  -0.007819   0.010064
     39      -0.079233   0.190167   0.016684   0.027408  -0.045777   0.019309
     40       0.091244  -0.089273   0.038154  -0.020330  -0.039335   0.025681
     41      -0.013758   0.024536   0.000346  -0.001406  -0.001797   0.001184
     42       0.054920   0.001251  -0.011004   0.004090   0.006210   0.013115
     43      -0.093849  -0.014505   0.034774   0.010228   0.002671   0.016621
     44      -0.200639  -0.032016   0.084839  -0.001281   0.014202   0.033036
     45      -0.014476  -0.001800   0.007504   0.001557  -0.001703   0.006531
     46       0.086364   0.002782  -0.031505   0.021316  -0.010341  -0.004805
     47       0.171881  -0.003876  -0.058110   0.014197  -0.009815  -0.026651
     48       0.030121  -0.124915  -0.109041   0.007808   0.097639  -0.083138
     49      -0.095862   0.164329  -0.056043   0.036137   0.027108  -0.047988
     50       0.008003  -0.019413  -0.008884  -0.002379   0.007859  -0.005964
     51       0.003725   0.048046   0.019401   0.002926  -0.019779  -0.001338
     52      -0.034229   0.048646  -0.016612   0.012760   0.003840  -0.017631
     53       0.001917   0.000131   0.004227   0.002958  -0.002234   0.001266
     54       0.053543   0.012950  -0.023029  -0.000864  -0.005089  -0.010252
     55      -0.019518   0.000050   0.003711   0.001281  -0.003008  -0.004917
     56      -0.021094   0.003374  -0.000817  -0.003004  -0.003994  -0.018556
     57       0.008262  -0.027236  -0.031386   0.023882  -0.006652  -0.014477
     58      -0.015177  -0.002722   0.008339   0.000950   0.002499   0.008118
     59      -0.032335  -0.017056   0.010411   0.007980   0.006068   0.011107
     60      -0.020402   0.006736  -0.003395  -0.001897  -0.013027  -0.007763
     61      -0.013089   0.002915   0.003385  -0.006713   0.001635  -0.003177
     62      -0.032196   0.011190   0.003121  -0.007193  -0.005715  -0.006745
     63      -0.118636  -0.069507  -0.114377  -0.082975  -0.378870  -0.442465
     64       0.005742  -0.015490   0.133455   0.063774   0.107521  -0.361004
     65       0.006439  -0.062867   0.021501   0.201271  -0.120501  -0.028407
     66      -0.258474  -0.023262   0.263009   0.064495   0.027219   0.147251
     67       0.133182   0.137492  -0.376093   0.028156  -0.192503   0.138778
     68       0.060160   0.088941   0.166956  -0.091323   0.100355   0.014015
     69       0.045450  -0.005495   0.103413   0.113741   0.200210   0.347457
     70       0.103834   0.178372  -0.156249  -0.533572   0.087592   0.005654
     71      -0.060527  -0.065107  -0.005411   0.090775  -0.082995  -0.021800
     72       0.130822   0.064120  -0.130141   0.405331   0.296848   0.199390
     73      -0.198826  -0.205616  -0.030314   0.484044  -0.092026   0.064294
     74      -0.098588  -0.099311   0.060648   0.143884  -0.100731  -0.054576
     75      -0.081673   0.565167   0.089024   0.075836  -0.190508   0.090476
     76       0.095860   0.112381   0.080481   0.007521  -0.121843   0.066208
     77      -0.012822   0.043047   0.001567   0.023686  -0.014049  -0.000013
     78       0.259285   0.025600  -0.174341   0.009996  -0.032544  -0.090605
     79      -0.237641  -0.035347   0.145012  -0.055647   0.045759   0.047155
     80      -0.337935  -0.046287   0.195512   0.013611   0.035089   0.115833
     81       0.155858   0.206009   0.358117  -0.066064   0.394266   0.024466
     82       0.102343   0.156405   0.260341  -0.066943   0.341871   0.086992
     83       0.077803   0.111707   0.205874  -0.036066   0.195924  -0.011662
     84      -0.017004   0.011247  -0.037218   0.000735  -0.051004  -0.066856
     85       0.041463  -0.017963  -0.001459  -0.053861   0.025248  -0.042123
     86       0.201524   0.009782  -0.096144   0.054859  -0.048180  -0.039803
     87       0.026776  -0.121206  -0.118365   0.009276   0.104432  -0.089749
     88      -0.280517   0.467391  -0.182861   0.115750   0.071377  -0.113701
     89       0.006599  -0.038306  -0.002234   0.010026   0.005231  -0.006122
     90       0.280123  -0.052121  -0.160271   0.074004  -0.016935  -0.085516
     91      -0.141093   0.009761   0.070356  -0.022477   0.007451   0.042506
     92      -0.223694  -0.001672   0.099700  -0.025930   0.013531   0.060552
     93      -0.022635   0.034056  -0.024127   0.012024   0.003327   0.004495
     94       0.053630  -0.054562  -0.116460   0.039014   0.242166  -0.249384
     95      -0.004442   0.001547   0.007810   0.004751  -0.012913   0.010769
     96      -0.050193   0.012487  -0.096495   0.026713   0.085147  -0.087657
     97      -0.007018  -0.033588  -0.056220   0.010039   0.056171  -0.052691
     98      -0.007233   0.007107  -0.009488   0.002460   0.007474  -0.007919
     99      -0.077787  -0.026734   0.041704   0.006727   0.007133   0.048707
    100       0.065694   0.016234  -0.028643  -0.003445  -0.002638  -0.028822
    101       0.104179   0.024450  -0.042759  -0.004874  -0.003369  -0.042579
    102      -0.042596   0.028987   0.002760  -0.016359  -0.025952  -0.019890
    103       0.017037  -0.012393   0.000292   0.007437   0.010738   0.009819
    104       0.024113  -0.017552   0.001202   0.009253   0.014936   0.013316
                 60         61         62         63         64         65    
      0      -0.006841  -0.104715   0.011853  -0.057799   0.053786   0.003535
      1       0.017099  -0.008931   0.003368  -0.008918   0.000478   0.002402
      2       0.003573  -0.009023   0.003585  -0.002953   0.009704   0.001418
      3       0.006613  -0.006767   0.001487   0.003141   0.010435   0.002028
      4       0.009625  -0.003062  -0.005454  -0.002446  -0.004364  -0.004808
      5       0.001747  -0.001142   0.000415   0.000834  -0.000169   0.001722
      6      -0.002182   0.024817  -0.002396  -0.019752   0.007519  -0.006037
      7       0.007513  -0.050558   0.003024  -0.023604  -0.015058   0.001842
      8      -0.000253   0.004896  -0.000047  -0.002671   0.000087  -0.000794
      9       0.002115  -0.112621   0.008089   0.024078  -0.012191   0.000267
     10       0.002285  -0.112464   0.008544  -0.003137   0.007879   0.009050
     11       0.000069  -0.006142   0.000386   0.002782  -0.001383  -0.000359
     12       0.049260  -0.005116  -0.033196   0.000421   0.012471   0.040779
     13      -0.039015   0.003688   0.024057   0.000020  -0.004307  -0.007645
     14      -0.067705   0.005963   0.040506   0.000255  -0.004621  -0.001889
     15      -0.067351   0.003839   0.038978   0.003518   0.016170   0.005786
     16       0.021365  -0.001770  -0.017911  -0.002092  -0.009169  -0.003520
     17       0.021396  -0.002490  -0.024496  -0.003362  -0.014399  -0.005450
     18      -0.025426   0.003108   0.014268  -0.025267  -0.043145   0.005966
     19      -0.009133   0.006542   0.003063   0.007969   0.015789   0.003508
     20      -0.000749  -0.006866   0.004499   0.024433   0.054474   0.004415
     21       0.035757   0.010602  -0.061286   0.007720  -0.019312  -0.057262
     22      -0.036760   0.030985   0.004604   0.039625   0.021101   0.017358
     23      -0.015107  -0.001147   0.013213  -0.032884  -0.055385   0.014436
     24       0.004917   0.004257   0.005551   0.008709   0.017836   0.010741
     25      -0.002728   0.058462  -0.001111   0.021225  -0.019179   0.022009
     26      -0.016748   0.013879  -0.005335   0.010783   0.006756   0.000578
     27       0.005959  -0.071623  -0.001105  -0.000225   0.023049  -0.016534
     28       0.001795  -0.116842  -0.000685  -0.062962   0.032759  -0.048178
     29       0.008747  -0.007393   0.011284  -0.025094  -0.043386   0.002318
     30       0.008303   0.121174  -0.009164   0.079567  -0.063526  -0.005800
     31       0.001865  -0.064987  -0.001595   0.009132  -0.002502  -0.030176
     32      -0.001792   0.014897  -0.000270   0.011056  -0.002607   0.001731
     33      -0.008064   0.020473   0.098184  -0.007130  -0.020787   0.108188
     34       0.016940  -0.001122  -0.005561  -0.011093  -0.024636  -0.028690
     35       0.026773  -0.003965   0.016885  -0.007562  -0.017002  -0.021911
     36       0.007437  -0.045576   0.000843  -0.065037   0.000019  -0.008103
     37      -0.004623   0.070522  -0.006485  -0.038819   0.029663  -0.012325
     38      -0.000155  -0.007375  -0.001099   0.000463   0.004131  -0.000153
     39      -0.003898   0.038769  -0.001868  -0.013001  -0.002520   0.001267
     40      -0.003900   0.085304   0.001585   0.036887  -0.023886   0.025412
     41      -0.000329  -0.000206  -0.000752  -0.002407   0.002150  -0.001219
     42      -0.122262   0.004643   0.048477  -0.002333  -0.011486  -0.034657
     43      -0.024093  -0.000377  -0.020998   0.003425   0.006897   0.005626
     44      -0.101378   0.002948  -0.027861   0.005256   0.005664   0.000923
     45       0.057793   0.015219   0.079978   0.011925   0.024397   0.008465
     46       0.010732  -0.004066  -0.026991   0.002717   0.005330  -0.009845
     47       0.049910  -0.003692  -0.025795   0.006436   0.016011  -0.017854
     48      -0.003420   0.087747  -0.002251   0.039363  -0.007470   0.018486
     49      -0.006468   0.022615  -0.000223   0.041412  -0.013009   0.000047
     50      -0.000293   0.008060  -0.000462   0.002446   0.001036   0.001803
     51      -0.001350   0.048552  -0.004634   0.052094  -0.036772  -0.016702
     52      -0.001608   0.177748  -0.013918  -0.035445   0.007940  -0.010667
     53       0.000351  -0.003550   0.000436   0.006337  -0.005746  -0.001301
     54       0.045489   0.000774   0.001650   0.002704   0.014416   0.057811
     55       0.039172  -0.004477  -0.029667   0.000357   0.005085   0.000866
     56       0.106501  -0.010414  -0.064751   0.000291   0.015385   0.025747
     57      -0.091543  -0.016061  -0.087389  -0.005380  -0.010577  -0.025150
     58      -0.031130   0.004324   0.027579   0.004569   0.011743  -0.002636
     59      -0.106437   0.003611   0.026435   0.007326   0.020450  -0.016792
     60       0.089676  -0.003422  -0.053674  -0.004385  -0.025080  -0.015648
     61       0.024494   0.000212   0.006439  -0.002609  -0.007288  -0.003735
     62       0.090305  -0.000778  -0.007582  -0.006373  -0.024645  -0.014522
     63      -0.080916   0.052280  -0.034749   0.135527   0.182102  -0.002681
     64       0.044303  -0.053753   0.112860  -0.126654  -0.130369   0.076574
     65      -0.023369   0.016065  -0.032870   0.085382   0.129688  -0.016757
     66       0.040989  -0.041547  -0.260353   0.051420   0.182105  -0.205014
     67      -0.034877  -0.128791   0.108351  -0.168611  -0.095427   0.065850
     68      -0.015106   0.019354  -0.050204   0.021845   0.018158  -0.025761
     69      -0.008518   0.186503  -0.123997   0.357859   0.446931   0.017232
     70      -0.048005   0.144491  -0.066646   0.182906   0.195393   0.019435
     71       0.007018  -0.020342   0.020953  -0.049800  -0.075564   0.002350
     72       0.050702   0.179834   0.075778  -0.152978  -0.485903   0.054908
     73       0.044624   0.102530   0.043683  -0.073951  -0.262573   0.037415
     74       0.003168  -0.036299  -0.000348   0.007269   0.042075  -0.007460
     75      -0.040773  -0.215778   0.042251  -0.283987   0.261492   0.183288
     76      -0.024624  -0.052705   0.026462  -0.111235   0.120865   0.127893
     77      -0.002455  -0.016547   0.003733  -0.022175   0.016972   0.011274
     78      -0.129957  -0.036122  -0.039996  -0.009195  -0.012410  -0.467036
     79      -0.021760   0.020860   0.023906   0.001944  -0.001799   0.225178
     80      -0.107013   0.031455   0.034630   0.011296   0.007632   0.297218
     81       0.019782   0.025623  -0.078513  -0.025026  -0.073253  -0.081875
     82       0.019763   0.023840  -0.070037  -0.019704  -0.060970  -0.070869
     83       0.007589   0.018751  -0.046549  -0.008007  -0.033319  -0.045436
     84       0.643228   0.067544   0.401299   0.084886   0.154650  -0.341799
     85       0.014844  -0.006296  -0.028050  -0.007262  -0.007763  -0.013646
     86       0.274567   0.016164   0.091935   0.040543   0.075416  -0.159331
     87      -0.004096   0.071648  -0.000206   0.060458  -0.015095   0.023869
     88      -0.017929  -0.688081   0.075530   0.530119  -0.235050   0.119352
     89       0.001474   0.034957  -0.001761  -0.021058   0.002360  -0.002897
     90      -0.230318  -0.100944  -0.588496  -0.047688  -0.075026   0.076171
     91       0.027555   0.045645   0.269183   0.024923   0.043182  -0.052580
     92      -0.016904   0.062829   0.378703   0.037885   0.068302  -0.091976
     93       0.000546   0.023964  -0.003435  -0.063975   0.005619  -0.013295
     94      -0.020756  -0.027082   0.013246   0.414437   0.001776   0.071759
     95       0.000823   0.002952  -0.001614  -0.023232   0.005821  -0.005079
     96      -0.006168   0.357376  -0.026147  -0.278223   0.196515   0.045401
     97      -0.003495   0.217448  -0.015504  -0.219912   0.157201   0.041300
     98      -0.000724   0.032026  -0.002369  -0.024402   0.017408   0.003907
     99      -0.270459   0.020653   0.098255  -0.000986  -0.083164  -0.345766
    100       0.156165  -0.012025  -0.054124   0.000845   0.054192   0.227729
    101       0.232171  -0.018003  -0.081029   0.001698   0.085476   0.361700
    102       0.315328  -0.012877  -0.184204  -0.036953  -0.166405  -0.049395
    103      -0.132154   0.005516   0.075239   0.014529   0.065028   0.018193
    104      -0.179578   0.006358   0.092503   0.017885   0.081327   0.022998
                 66         67         68         69         70         71    
      0       0.012672  -0.001615  -0.031765  -0.000523  -0.033492  -0.001490
      1       0.009213  -0.017897   0.000930   0.003949  -0.011410  -0.013722
      2       0.005735  -0.000940  -0.014122  -0.016048   0.002147  -0.015174
      3       0.007273   0.015460   0.015145   0.026952   0.010287   0.006727
      4      -0.006994  -0.000488   0.006221  -0.018605  -0.012685  -0.003611
      5       0.001034   0.005116   0.016710   0.008466  -0.010991   0.002491
      6      -0.005647   0.015760  -0.037734   0.013587  -0.010092  -0.003178
      7      -0.005095  -0.033709  -0.034001  -0.003980   0.065058   0.014272
      8      -0.001074   0.003075  -0.003234   0.001777  -0.004287  -0.000932
      9      -0.004324  -0.000625  -0.036027   0.015105  -0.036549  -0.011118
     10       0.011795  -0.038119  -0.005978  -0.006469   0.017604  -0.002578
     11      -0.000974   0.001857  -0.003474   0.001859  -0.004576  -0.001053
     12      -0.050648  -0.001511   0.005350   0.006262   0.004491  -0.011215
     13       0.020757   0.005330  -0.004411  -0.006707  -0.003289   0.020853
     14       0.027059   0.011225  -0.007832  -0.012373  -0.005837   0.041406
     15      -0.041689  -0.007032   0.001552   0.001444  -0.006206   0.056256
     16       0.026762   0.004835  -0.002371  -0.002831  -0.000558  -0.006688
     17       0.043521   0.008143  -0.004711  -0.005759  -0.003687   0.007208
     18      -0.021485  -0.018887  -0.012731  -0.035638  -0.017778   0.001787
     19       0.011846  -0.002267  -0.021193   0.020040   0.018115   0.004210
     20       0.029280   0.022641  -0.016166   0.003957   0.013335  -0.025577
     21      -0.024835  -0.027458   0.030046   0.037025   0.022507  -0.022640
     22       0.003927   0.028000  -0.010643  -0.037890   0.011194  -0.000602
     23      -0.009145   0.001020   0.035650   0.071253   0.014895   0.031579
     24       0.020005   0.002545   0.039769   0.023593  -0.062604  -0.004767
     25       0.010784  -0.065938   0.004457   0.015115  -0.073333  -0.011085
     26      -0.004964  -0.009667  -0.028338  -0.022796   0.012564   0.007699
     27      -0.000984   0.070926   0.113336  -0.030877  -0.051732  -0.013194
     28      -0.030163   0.128550   0.020384  -0.053001   0.101261   0.019602
     29      -0.013844  -0.007485   0.023938  -0.007384  -0.023822   0.000493
     30      -0.018159   0.006040   0.020832  -0.018189   0.076375   0.010627
     31      -0.022300   0.084673   0.017602  -0.019831   0.046360   0.005592
     32       0.000729   0.000033  -0.000890  -0.002399   0.007566   0.000149
     33       0.073004   0.062927  -0.015974  -0.016143   0.012390  -0.087420
     34       0.001675  -0.011808   0.008540   0.014094   0.010481  -0.014147
     35       0.037833   0.009005   0.001176   0.006509   0.020843  -0.065708
     36      -0.011137  -0.008266  -0.034295  -0.008262   0.051789   0.011538
     37      -0.006271   0.052467  -0.038596   0.029369  -0.092423  -0.022708
     38       0.001476  -0.003113  -0.001256  -0.002015   0.010983   0.001889
     39      -0.002502  -0.006929  -0.002865  -0.009815   0.061841   0.021649
     40       0.008796  -0.052854  -0.029153   0.030177  -0.048847   0.000002
     41      -0.000368   0.001934   0.000595  -0.001676   0.008523   0.002402
     42       0.040508   0.003695  -0.005251  -0.005344  -0.005117   0.036028
     43      -0.013805  -0.004425   0.002199   0.001975  -0.002870  -0.000030
     44      -0.013951  -0.008466   0.002813   0.002061  -0.007738   0.015894
     45      -0.025357  -0.000945  -0.004124  -0.007487  -0.003132   0.003948
     46      -0.008515  -0.007110   0.001679   0.001446  -0.000669  -0.009666
     47      -0.031468  -0.018432   0.003646   0.003198  -0.002737  -0.020197
     48       0.017177  -0.050751   0.021588  -0.002515   0.012918   0.002229
     49      -0.004680   0.023734  -0.003250   0.023076  -0.091557  -0.021212
     50       0.002230  -0.005656   0.001862  -0.001158   0.005713   0.001059
     51      -0.027319   0.074613  -0.004052   0.018706  -0.051917  -0.000776
     52      -0.008638   0.036616   0.025600  -0.003509   0.002963   0.010492
     53      -0.003078   0.005812  -0.001580   0.002468  -0.005739  -0.000351
     54      -0.042782   0.011841  -0.003144  -0.010159  -0.003736   0.048018
     55      -0.022621  -0.009547   0.006697   0.011008   0.005677  -0.047880
     56      -0.067905  -0.016844   0.013955   0.021447   0.011203  -0.087302
     57      -0.004408  -0.012287   0.005660   0.006157   0.005061  -0.019898
     58      -0.023439  -0.005559   0.000657  -0.000921  -0.003610   0.023561
     59      -0.055535  -0.018881   0.004616   0.002217  -0.005943   0.046413
     60       0.060802   0.007867   0.001416   0.003472   0.016381  -0.127971
     61       0.027287   0.005557  -0.004487  -0.004215  -0.006362   0.037272
     62       0.085099   0.015990  -0.009835  -0.008884  -0.007912   0.032938
     63       0.029072   0.003720  -0.203349  -0.115731   0.128898   0.034560
     64       0.076982   0.062553   0.131368   0.628614   0.339069   0.151922
     65       0.019911   0.010929  -0.084359  -0.169364  -0.049609  -0.059585
     66      -0.123602  -0.180385   0.052102   0.116342  -0.209937   0.390340
     67       0.000786   0.041270   0.138538   0.208176  -0.132292   0.075732
     68      -0.025640  -0.033547   0.003957   0.033884  -0.002397   0.100389
     69       0.213542  -0.031139  -0.288256   0.239750   0.333521  -0.040504
     70       0.087088  -0.073957  -0.178998   0.071408   0.121869  -0.005436
     71      -0.030372  -0.005384   0.047429  -0.035063  -0.062040   0.000476
     72      -0.156483  -0.289556  -0.188016  -0.065621   0.160234   0.079447
     73      -0.064878  -0.169244  -0.043510  -0.002594  -0.003365   0.005214
     74       0.016017   0.044346   0.042422   0.003926  -0.033701  -0.019931
     75       0.231717  -0.545125   0.095376   0.007886  -0.231458  -0.096161
     76       0.138764  -0.352617   0.021610   0.044690  -0.224886  -0.067136
     77       0.014728  -0.033754   0.008695  -0.004716  -0.009009  -0.006657
     78      -0.119322  -0.202626   0.082213   0.131656   0.061341  -0.269454
     79       0.071306   0.097634  -0.043472  -0.070103  -0.038547   0.153622
     80       0.100501   0.135137  -0.057007  -0.090795  -0.053446   0.223651
     81      -0.104613  -0.118423  -0.156843  -0.364056  -0.068225  -0.080621
     82      -0.092027  -0.103209  -0.135676  -0.318951  -0.061168  -0.069504
     83      -0.057366  -0.067258  -0.091638  -0.203273  -0.036724  -0.043850
     84      -0.068004  -0.144317  -0.022133  -0.039216  -0.114329   0.489544
     85      -0.013810  -0.014817   0.006742   0.011914  -0.001519  -0.005643
     86      -0.049873  -0.074773  -0.005161  -0.013592  -0.047074   0.170399
     87       0.020756  -0.066291   0.027808  -0.006573   0.030464   0.007014
     88       0.050042  -0.340191   0.001450  -0.045181   0.317737   0.087268
     89      -0.002819   0.007231   0.003024  -0.000454  -0.012585  -0.002906
     90       0.026619   0.004647   0.006878   0.006073  -0.054359   0.323160
     91      -0.045793  -0.016393   0.001536   0.000916   0.026344  -0.147250
     92      -0.083773  -0.033740   0.004761   0.003297   0.036907  -0.202528
     93      -0.017994   0.017210  -0.108412   0.030764   0.006575  -0.000474
     94       0.115050  -0.036552   0.682301  -0.178451  -0.124903  -0.017502
     95      -0.004917   0.007384  -0.035201   0.010851   0.005434   0.000068
     96       0.121289  -0.216326   0.320570  -0.189342   0.430997   0.072741
     97       0.101551  -0.192818   0.246597  -0.151801   0.349199   0.056456
     98       0.010336  -0.017951   0.026605  -0.015141   0.033473   0.005572
     99       0.309745  -0.040821  -0.010962  -0.000632  -0.017344  -0.071755
    100      -0.198078   0.029561   0.005227  -0.002935   0.009728   0.057760
    101      -0.311099   0.048558   0.007087  -0.006541   0.014396   0.098732
    102       0.556942   0.115576  -0.071841  -0.087460  -0.074179   0.269287
    103      -0.215814  -0.044886   0.027398   0.033245   0.027238  -0.093911
    104      -0.271169  -0.056509   0.034175   0.041461   0.032152  -0.104138
                 72         73         74         75         76         77    
      0       0.010755  -0.015596   0.003840   0.017548   0.017018   0.004132
      1      -0.010416   0.016324   0.003864  -0.015171   0.000760   0.005432
      2      -0.012268   0.005665   0.023119  -0.011466  -0.000388   0.003932
      3      -0.000517   0.006720   0.022353   0.011903   0.011451   0.003161
      4      -0.000214  -0.006690  -0.002455  -0.004925  -0.003347  -0.000486
      5       0.002441  -0.013223   0.034086   0.002112  -0.007662   0.011248
      6       0.001473  -0.009187   0.015961  -0.006758  -0.002216  -0.019039
      7       0.013751  -0.052308  -0.001994   0.001268   0.020054  -0.030358
      8      -0.000343   0.001026   0.002252  -0.000753  -0.000828  -0.001511
      9      -0.010082   0.036474   0.007820  -0.006957  -0.016376   0.017129
     10      -0.005895   0.020479   0.014858  -0.009704  -0.012520  -0.012928
     11      -0.000764   0.002718   0.000102  -0.000321  -0.001016   0.002301
     12      -0.034508  -0.005453  -0.002151  -0.020730   0.021087   0.021003
     13       0.032730   0.007341   0.001171  -0.019092   0.004313   0.003266
     14       0.058814   0.013930   0.001628  -0.048549   0.017086   0.014741
     15      -0.114544  -0.013834  -0.002542  -0.018524   0.001701   0.000845
     16       0.023748   0.002907   0.000253   0.000924   0.009502   0.009621
     17       0.007822   0.001109  -0.000445  -0.005351   0.021835   0.021900
     18       0.005854  -0.017979  -0.002048  -0.038288  -0.106353   0.033235
     19       0.003098  -0.010185   0.012359   0.015927  -0.002759   0.014304
     20      -0.012818  -0.026509  -0.075693  -0.052242  -0.031972  -0.016522
     21      -0.018235   0.013382   0.014682  -0.133430  -0.004280  -0.024766
     22      -0.013188   0.016084   0.083724   0.034750  -0.006323   0.014090
     23       0.016229   0.007056  -0.007575   0.019819  -0.016274  -0.013625
     24       0.030181  -0.128414   0.052796   0.009380   0.049997  -0.000072
     25       0.011175  -0.060759   0.012467  -0.014165   0.027204  -0.023389
     26       0.000864   0.030309   0.002140   0.034732   0.031173  -0.004408
     27      -0.027334   0.092452  -0.031790  -0.007566   0.016824  -0.081025
     28      -0.001561   0.043652  -0.004234   0.032368  -0.038424   0.102895
     29      -0.000180   0.006564   0.005373   0.004253   0.009040  -0.011771
     30      -0.010714   0.047137   0.018621  -0.021399  -0.039058  -0.042764
     31       0.001033  -0.023491   0.019153  -0.028411   0.038596  -0.174337
     32      -0.001870   0.006157   0.000702  -0.000750  -0.005643  -0.000185
     33      -0.083988  -0.026467  -0.011394   0.096860  -0.001948   0.002759
     34       0.002838   0.004751  -0.012366  -0.086719   0.020342   0.019517
     35      -0.028017  -0.001379  -0.003337  -0.129926   0.060989   0.051199
     36       0.002954   0.008540  -0.026149   0.026129  -0.019723   0.129108
     37      -0.018750   0.070127   0.020836  -0.006302  -0.046347   0.058786
     38       0.000827  -0.002049  -0.004328   0.002397  -0.000396   0.010990
     39       0.018842  -0.044316  -0.016493   0.032185  -0.023023   0.118791
     40       0.010870  -0.030563  -0.015961   0.022776  -0.008436   0.089108
     41       0.001646  -0.002967  -0.001458   0.002464  -0.002051   0.008697
     42      -0.000871   0.003308  -0.000188  -0.035691  -0.007425  -0.006840
     43      -0.022881  -0.006050   0.000034   0.033863   0.002268   0.003267
     44      -0.047752  -0.009981   0.001567   0.056607   0.001122   0.004404
     45      -0.086852  -0.018823  -0.005179   0.069471   0.025968   0.025468
     46       0.042853   0.005786   0.003682   0.012544  -0.002864  -0.001480
     47       0.062144   0.004571   0.001398   0.055350   0.001900   0.005552
     48       0.004751  -0.022124   0.005139  -0.006882   0.004875  -0.018894
     49      -0.015917   0.036802   0.005188  -0.030022   0.024535  -0.127529
     50       0.001086  -0.003680  -0.000034   0.000462  -0.000756   0.003639
     51       0.009752  -0.045451  -0.014674   0.005461   0.049161  -0.071572
     52       0.014253  -0.041487  -0.033029   0.030016   0.011579   0.097380
     53       0.000464  -0.002592   0.000039  -0.000650   0.004258  -0.011083
     54       0.083308   0.018360   0.005448  -0.005400  -0.024778  -0.028253
     55      -0.053270  -0.014613  -0.001057   0.067255  -0.022932  -0.019580
     56      -0.085447  -0.025175  -0.002166   0.144276  -0.059581  -0.053753
     57       0.114377   0.021286   0.003934  -0.075959   0.016035   0.016398
     58      -0.012426  -0.000706   0.001764   0.010773  -0.006380  -0.006838
     59       0.017562   0.007062   0.003698  -0.006780  -0.008674  -0.009234
     60       0.220147   0.025269   0.005035   0.044249  -0.026939  -0.025302
     61      -0.068681  -0.008063  -0.002165  -0.015176  -0.009307  -0.010197
     62      -0.067785  -0.008219  -0.001812  -0.015614  -0.031105  -0.032350
     63      -0.021184   0.353911  -0.176545   0.393487   0.660070  -0.221372
     64       0.002166   0.274549  -0.044305   0.045264   0.071095  -0.056553
     65      -0.016407  -0.048842  -0.089486   0.004224   0.063445  -0.037066
     66       0.380343  -0.025831  -0.093184   0.451632   0.205285   0.242796
     67       0.131015  -0.263015  -0.795104   0.021856  -0.029643  -0.180924
     68       0.068795   0.062908   0.171262   0.152441   0.036484   0.091778
     69      -0.101479   0.177173  -0.242200  -0.210035  -0.255267  -0.039691
     70      -0.025513   0.087617  -0.085353  -0.026154  -0.053868   0.008401
     71       0.009340  -0.025038   0.028000   0.019733   0.044650  -0.023056
     72      -0.062661   0.481096  -0.055835   0.189145   0.094913  -0.070548
     73      -0.035802   0.168323  -0.054348  -0.003156  -0.032340  -0.028605
     74       0.004525  -0.069487  -0.007893  -0.044693  -0.039861   0.020872
     75      -0.086635   0.254176   0.055808  -0.085510  -0.022903  -0.095391
     76      -0.047253   0.132267   0.020949  -0.040293  -0.005148  -0.022871
     77      -0.006763   0.017739   0.006252  -0.007452  -0.001319  -0.012298
     78      -0.480843  -0.085690  -0.016799  -0.015520   0.180870   0.183173
     79       0.220180   0.040507   0.006044   0.026063  -0.094023  -0.097423
     80       0.272397   0.047956   0.013606   0.058505  -0.136150  -0.131980
     81      -0.012726   0.004123  -0.273141  -0.106438  -0.044050  -0.059152
     82      -0.012391   0.004766  -0.238589  -0.089254  -0.032569  -0.053979
     83      -0.008348   0.005095  -0.144393  -0.054359  -0.018879  -0.032357
     84       0.012330   0.036641   0.031708  -0.048037  -0.208477  -0.197621
     85       0.052308   0.005031  -0.009451   0.007809  -0.006032  -0.003154
     86       0.116773   0.030185   0.023860   0.010729  -0.087780  -0.079584
     87       0.009588  -0.037705   0.002957  -0.002646   0.007060  -0.009257
     88       0.096508  -0.312187   0.015831   0.059837   0.028411   0.080257
     89      -0.003393   0.011601   0.000085  -0.001845   0.000474  -0.005179
     90      -0.272222  -0.019781   0.012577   0.042661  -0.189350  -0.191304
     91       0.188754   0.021477  -0.002306  -0.047848   0.091246   0.092509
     92       0.317623   0.040210  -0.001178  -0.092455   0.134819   0.136109
     93       0.009440  -0.044877   0.032254  -0.014376   0.007349  -0.058797
     94      -0.074250   0.346511  -0.170962   0.086862  -0.094516   0.430190
     95       0.004006  -0.020577   0.009473  -0.006306   0.002066  -0.019365
     96       0.038246  -0.157017   0.033237  -0.022918   0.070477  -0.292551
     97       0.027806  -0.114220   0.033580  -0.021171   0.046906  -0.227597
     98       0.002861  -0.011860   0.002290  -0.001832   0.005721  -0.022414
     99       0.045814  -0.012377   0.010697   0.356276  -0.197962  -0.186589
    100      -0.012793   0.011842  -0.006789  -0.245831   0.135617   0.127512
    101      -0.010731   0.021299  -0.010123  -0.398751   0.220240   0.207174
    102      -0.242065  -0.030078  -0.013305  -0.067349   0.253903   0.251069
    103       0.073358   0.009132   0.004556   0.020222  -0.093571  -0.092710
    104       0.069673   0.008894   0.005105   0.019972  -0.113036  -0.112028
                 78         79         80         81         82         83    
      0       0.041560  -0.076536   0.023501   0.007107   0.002803   0.019149
      1       0.011973   0.001108   0.020990   0.008603   0.001706   0.007603
      2       0.015423  -0.013046   0.020234   0.001992   0.002589   0.005667
      3       0.004176   0.004465  -0.007196   0.034158   0.002453   0.002498
      4      -0.001048  -0.000419   0.001473  -0.011717  -0.001354  -0.004204
      5      -0.007533  -0.008056  -0.021642   0.043266   0.001720   0.005140
      6      -0.026496   0.035885  -0.014128  -0.008847  -0.003043   0.011835
      7       0.024492  -0.061198   0.009541   0.008661   0.008724  -0.033136
      8      -0.004185   0.006745  -0.002219  -0.001361  -0.000831   0.003167
      9      -0.018818   0.038899  -0.001821  -0.001694   0.004205  -0.030316
     10      -0.042246   0.060592  -0.022142  -0.009979  -0.006196   0.013404
     11       0.000182   0.000940   0.000888   0.000316   0.000727  -0.003633
     12       0.006513  -0.000002  -0.030341  -0.009440   0.057189   0.005298
     13      -0.015359  -0.004152   0.015403   0.004556  -0.022861  -0.001526
     14      -0.031311  -0.009098   0.022641   0.006570  -0.028710  -0.001370
     15       0.028656   0.010666  -0.019538  -0.003310  -0.008383  -0.003667
     16      -0.025767  -0.009215   0.006591  -0.001027   0.021023   0.003377
     17      -0.046183  -0.016390   0.007088  -0.003691   0.043649   0.006084
     18      -0.053977  -0.106883  -0.053980  -0.053491  -0.011198  -0.000317
     19      -0.022679   0.003560  -0.064806   0.163472   0.008729   0.025597
     20      -0.009463  -0.000044   0.030564  -0.064582  -0.000193  -0.010288
     21       0.025040   0.055302   0.127923   0.070184   0.020831   0.030107
     22       0.015954  -0.045140   0.002004  -0.073530   0.006665  -0.008776
     23      -0.015009   0.005968   0.006379   0.010930   0.043362   0.008145
     24       0.017777   0.113981   0.046366  -0.015373   0.013973  -0.062738
     25       0.020180   0.019930   0.036246  -0.054317  -0.019916   0.062092
     26       0.013870   0.010228  -0.003321   0.013438  -0.001635   0.010766
     27      -0.005407  -0.079346  -0.031844  -0.000306  -0.016341   0.078428
     28      -0.000845   0.041974   0.004175   0.004652   0.015070  -0.045007
     29       0.001233  -0.004974  -0.003954   0.001337  -0.003426   0.012856
     30      -0.126841   0.163661  -0.070519  -0.027381   0.009102  -0.093876
     31      -0.045126  -0.052805  -0.043848  -0.001653  -0.000394  -0.025972
     32      -0.011685   0.016501  -0.006773  -0.002958   0.001608  -0.008927
     33       0.030775   0.000620  -0.075683  -0.023578   0.048412  -0.000013
     34       0.028878   0.014646  -0.019363   0.012637  -0.088758  -0.009604
     35       0.087682   0.017882  -0.076496   0.003211  -0.187648  -0.025412
     36       0.067973  -0.029774   0.051486   0.025428   0.006381  -0.018259
     37      -0.079825   0.186167  -0.037342  -0.028802  -0.033564   0.138148
     38       0.011089  -0.013043   0.007261   0.004250   0.002362  -0.009188
     39       0.018378   0.065734   0.011263  -0.001942  -0.013840   0.032605
     40       0.034724   0.020325   0.019588  -0.003999  -0.014537   0.069725
     41       0.000370   0.005915   0.000246  -0.000047  -0.000686  -0.000448
     42       0.095857   0.025549  -0.075156  -0.018161   0.099925   0.006660
     43      -0.049339  -0.013080   0.026824   0.001055   0.017183   0.003407
     44      -0.069202  -0.018056   0.030233  -0.003984   0.078695   0.010606
     45      -0.139745  -0.042841   0.055125   0.006449  -0.133326  -0.020555
     46      -0.003512  -0.003613  -0.002924  -0.005493   0.039015   0.003941
     47      -0.066337  -0.023648   0.015558  -0.006324   0.037479   0.001526
     48      -0.001889  -0.007511   0.002673   0.000145   0.010366  -0.056089
     49      -0.020077  -0.077865  -0.020981  -0.000168   0.013857  -0.082978
     50       0.000562   0.002811   0.001135  -0.000177   0.000326  -0.001394
     51       0.059653  -0.147413   0.015136   0.007643  -0.003664   0.072946
     52       0.111613  -0.111689   0.074099   0.030267   0.023267  -0.066341
     53       0.000656  -0.008954  -0.002006  -0.000547  -0.001431   0.010246
     54      -0.084454  -0.015739   0.129376   0.037502  -0.214654  -0.018186
     55       0.031408   0.007673  -0.025659  -0.010101   0.056985   0.004553
     56       0.036354   0.011680  -0.006992  -0.006513   0.043600   0.003382
     57       0.064116   0.014190  -0.059586  -0.015244   0.106208   0.009855
     58      -0.035658  -0.007531   0.041126   0.007703  -0.006267   0.003405
     59      -0.055639  -0.010135   0.068936   0.013108   0.027026   0.011726
     60       0.007830   0.001859   0.017502   0.007714   0.001920   0.004812
     61       0.064047   0.020509  -0.034951  -0.001417  -0.051982  -0.010553
     62       0.145752   0.045883  -0.071063  -0.000825  -0.115803  -0.021898
     63       0.316902   0.536947   0.268520   0.040380   0.018019   0.013668
     64       0.122522  -0.046528   0.291767  -0.628324  -0.016870  -0.077942
     65       0.007537   0.111163  -0.013297   0.155289   0.011395   0.017943
     66      -0.099678  -0.151841  -0.684143  -0.216474  -0.411702  -0.156493
     67      -0.228255   0.318782  -0.137531   0.215169   0.083763  -0.001370
     68       0.016111  -0.130352  -0.139909  -0.118130  -0.073302  -0.030811
     69      -0.088948  -0.433223  -0.117834   0.021882  -0.060380   0.265679
     70      -0.034799  -0.045767  -0.041866   0.143689   0.113513  -0.428355
     71       0.029925   0.006917   0.025164  -0.090229  -0.075687   0.289029
     72       0.041764  -0.272421  -0.169572   0.237960  -0.034283   0.207349
     73      -0.031819  -0.098025  -0.067431   0.149875   0.085971  -0.312346
     74      -0.037937   0.088973   0.017111   0.056549   0.110220  -0.433612
     75      -0.048641  -0.023307   0.022302   0.011321   0.062364  -0.235684
     76       0.011181  -0.045272   0.033576   0.006104   0.027510  -0.069737
     77      -0.006699   0.000246  -0.000208   0.000600   0.005094  -0.020623
     78      -0.194626  -0.078332  -0.033620  -0.024726   0.071781   0.012158
     79       0.105367   0.046130   0.005988   0.012038   0.045232   0.004747
     80       0.136566   0.053877  -0.002820  -0.004920   0.124992   0.009291
     81       0.014590   0.003400   0.133869  -0.371246  -0.020473  -0.048214
     82       0.016195   0.004415   0.119403  -0.328686  -0.018812  -0.045183
     83       0.012018  -0.000079   0.073277  -0.197617  -0.011469  -0.026448
     84       0.288368   0.116213   0.051829   0.012005   0.406448   0.072439
     85      -0.010235   0.000979  -0.005349   0.003336   0.046662   0.005995
     86       0.101430   0.033635   0.014456  -0.010509   0.258692   0.038384
     87       0.009005  -0.016191   0.009550   0.002629   0.012359  -0.060148
     88       0.043184   0.060914   0.013069  -0.023485  -0.037042   0.240414
     89      -0.000390  -0.005485   0.000012   0.001211   0.002478  -0.014798
     90       0.167165   0.092931   0.149403   0.056780  -0.114316   0.005849
     91      -0.085162  -0.045244  -0.058779  -0.026335   0.107462   0.006788
     92      -0.128052  -0.066284  -0.076507  -0.038035   0.202434   0.018090
     93      -0.041590   0.040158  -0.024204  -0.013269  -0.002608   0.010493
     94       0.182249  -0.074244   0.121609   0.056371   0.001975  -0.009903
     95      -0.011437   0.008924  -0.005704  -0.005040   0.000078  -0.000720
     96      -0.113399   0.004023  -0.122973  -0.037777  -0.051338   0.221853
     97      -0.110069   0.040721  -0.106811  -0.035514  -0.044653   0.187042
     98      -0.007581  -0.001687  -0.008643  -0.002400  -0.003323   0.014759
     99       0.000164   0.011211   0.151296   0.036984  -0.201670  -0.018434
    100      -0.012869  -0.011167  -0.091931  -0.022590   0.129926   0.012603
    101      -0.030065  -0.020958  -0.141204  -0.035334   0.206022   0.020435
    102      -0.519122  -0.177597   0.078210  -0.036810   0.353707   0.045844
    103       0.200919   0.068681  -0.035429   0.012408  -0.128321  -0.017304
    104       0.250007   0.085679  -0.047490   0.013943  -0.151553  -0.020965
                 84         85         86         87         88         89    
      0       0.014475   0.027210  -0.003585  -0.000328   0.005087  -0.010983
      1       0.010931  -0.027187  -0.004158  -0.014732  -0.011838   0.027740
      2       0.004362   0.004485  -0.002327   0.000925  -0.000259   0.002366
      3      -0.001539  -0.001690  -0.000661  -0.001155  -0.000760   0.002512
      4       0.002943  -0.000607   0.000157   0.000161  -0.000917  -0.001236
      5      -0.003261  -0.000426  -0.000456  -0.000069   0.000160   0.001527
      6       0.013501  -0.040817   0.000039   0.027583   0.015939   0.031435
      7      -0.016579  -0.014823   0.000883   0.015274   0.008971   0.039063
      8       0.002195  -0.004045  -0.000042   0.002656   0.001553   0.001736
      9      -0.032368   0.016117   0.001058   0.047668   0.028238   0.004851
     10       0.001585   0.041117   0.000750  -0.018403  -0.010270   0.017706
     11      -0.003275  -0.000336   0.000065   0.005599   0.003281  -0.000453
     12      -0.001108   0.000157   0.018059   0.003020  -0.008127  -0.006960
     13       0.000776  -0.000332   0.010285  -0.006771   0.011841   0.000061
     14       0.001236  -0.000617   0.029005  -0.013513   0.022744  -0.002393
     15      -0.000450  -0.000866  -0.045479  -0.006879   0.010262   0.002875
     16      -0.000180   0.000912   0.005798   0.009949  -0.015105   0.001940
     17      -0.000581   0.001729  -0.004905   0.019394  -0.029382   0.005479
     18       0.002953   0.002131   0.002728   0.000604  -0.000413  -0.009684
     19      -0.030081  -0.010049   0.002197  -0.012391  -0.003818   0.004769
     20       0.003677   0.000129  -0.000313  -0.001409  -0.002401  -0.005157
     21       0.004899   0.000065  -0.054786   0.008328  -0.006348   0.028605
     22       0.011276   0.018919   0.008802   0.009399   0.018067  -0.001361
     23      -0.004074  -0.001247  -0.009111  -0.011602   0.019729  -0.000315
     24      -0.001272   0.018909   0.000993  -0.030015  -0.018371  -0.020770
     25      -0.066010   0.020174  -0.002810   0.003229   0.001479  -0.025906
     26      -0.011650  -0.003487   0.001706  -0.002035  -0.000426   0.000188
     27       0.080762  -0.042188  -0.001569   0.217145   0.129241   0.141107
     28      -0.013285  -0.193969   0.002786  -0.125530  -0.075880   0.213318
     29       0.006436   0.006492  -0.000277   0.028174   0.016766   0.002958
     30      -0.065293  -0.123856   0.005965  -0.085381  -0.057380  -0.100827
     31      -0.052530   0.163046   0.001495   0.149639   0.091193  -0.321978
     32      -0.004434  -0.019483   0.000986  -0.014986  -0.009474   0.002417
     33      -0.002331  -0.001128   0.169676  -0.045778   0.088959   0.017803
     34       0.000784  -0.005054  -0.004954   0.054440  -0.096981   0.009226
     35       0.004250  -0.003503   0.061127   0.107522  -0.176520   0.025320
     36      -0.045243   0.166915  -0.002206  -0.213796  -0.125297  -0.282689
     37       0.087317   0.005487  -0.005572   0.038900   0.021750  -0.238426
     38      -0.008731   0.016864   0.000065  -0.023343  -0.013625  -0.015833
     39      -0.007807   0.184902   0.002876   0.154931   0.096080   0.240764
     40       0.056292   0.043754  -0.000324  -0.056486  -0.031574   0.209765
     41      -0.003571   0.016052   0.000346   0.018152   0.011097   0.014572
     42      -0.004137   0.003674  -0.098252   0.122327  -0.216629  -0.021113
     43       0.000523  -0.000967   0.047366  -0.072792   0.124442  -0.000146
     44      -0.000363  -0.000963   0.065085  -0.112537   0.188848  -0.008465
     45       0.000511  -0.002498  -0.099126   0.038682  -0.088083  -0.043670
     46      -0.000732   0.001307  -0.034707  -0.024232   0.042061  -0.000816
     47      -0.002092   0.001221  -0.118185  -0.040094   0.060458  -0.018864
     48      -0.040331  -0.034135   0.002238   0.123880   0.072896   0.099207
     49      -0.062302   0.112298   0.007330  -0.177684  -0.101907   0.296593
     50      -0.000989  -0.008627  -0.000125   0.020376   0.011882  -0.004373
     51       0.097542  -0.130801  -0.004717  -0.268100  -0.159949  -0.116987
     52      -0.036367  -0.162711  -0.003547   0.222346   0.128306  -0.170152
     53       0.011336  -0.005415  -0.000313  -0.037010  -0.021852  -0.003467
     54       0.005644  -0.002474  -0.038224  -0.061225   0.120844   0.045786
     55      -0.002104   0.002562  -0.049159   0.057353  -0.094838   0.005686
     56      -0.002645   0.004424  -0.122601   0.101995  -0.161184   0.030541
     57      -0.002201   0.001626  -0.121408  -0.089841   0.163753   0.029546
     58       0.001324   0.000968   0.084587   0.060703  -0.102258  -0.003205
     59       0.001784   0.002065   0.141841   0.100935  -0.166427   0.004461
     60       0.001282  -0.000820   0.191540   0.022070  -0.047843  -0.036112
     61      -0.000065  -0.003118  -0.050228  -0.070777   0.113698  -0.008009
     62       0.000412  -0.007113  -0.037404  -0.148910   0.234479  -0.032240
     63      -0.008267  -0.008141   0.000580   0.006818   0.006656   0.021298
     64       0.076657   0.028687  -0.006850   0.011449   0.009381  -0.012028
     65      -0.027479  -0.013014   0.001364  -0.009274  -0.005264   0.004601
     66      -0.015113  -0.030301   0.108624   0.053543  -0.139669  -0.042959
     67      -0.081957  -0.067868   0.006429  -0.062644   0.013548  -0.035943
     68       0.012908   0.015736   0.028332   0.021860  -0.008829  -0.005717
     69      -0.188494  -0.027962  -0.003703   0.025894   0.019350  -0.016918
     70       0.495277   0.205386   0.002396   0.056446   0.030403  -0.100783
     71      -0.313204  -0.108802  -0.001526  -0.023840  -0.011209   0.051380
     72      -0.051580   0.025878   0.007692   0.087114   0.058702   0.000938
     73       0.454468   0.192699  -0.000992   0.108365   0.061650  -0.070985
     74       0.447039   0.144261  -0.000029   0.030390   0.013338  -0.056807
     75      -0.127255  -0.446889  -0.002160   0.023971   0.004623  -0.343342
     76       0.002108  -0.323396  -0.004087  -0.144728  -0.091821  -0.110372
     77      -0.014868  -0.030169   0.000138   0.007627   0.003776  -0.031665
     78       0.005201  -0.005048   0.343586  -0.217853   0.373171  -0.006708
     79      -0.004563   0.003337  -0.178327   0.099789  -0.173586  -0.004995
     80      -0.007257   0.006201  -0.244094   0.125464  -0.223117  -0.019739
     81       0.035222   0.004232   0.002900   0.005546  -0.001338  -0.012431
     82       0.033111   0.004889   0.002788   0.004801  -0.001633  -0.012325
     83       0.021261   0.005006   0.001611   0.004195   0.000239  -0.006537
     84       0.000831   0.007598   0.426800   0.000970   0.033052   0.052246
     85      -0.002645  -0.001021  -0.043699  -0.026440   0.042372  -0.000529
     86      -0.001291   0.007077   0.072137  -0.056972   0.113927   0.018252
     87      -0.039919  -0.062596   0.001778   0.154303   0.090402   0.086569
     88       0.243591  -0.427964  -0.013837   0.204547   0.114296  -0.314149
     89      -0.012903   0.011169   0.000717   0.007659   0.004691   0.020795
     90       0.007757  -0.003775   0.448947   0.134059  -0.230718  -0.013319
     91      -0.003612   0.003571  -0.185804  -0.046866   0.087913   0.018585
     92      -0.005267   0.006822  -0.245621  -0.054047   0.109455   0.036840
     93       0.019660  -0.072856   0.000339   0.043859   0.025298   0.060490
     94      -0.093195   0.378346  -0.002544  -0.284836  -0.164831  -0.362786
     95       0.004249  -0.022304   0.000105   0.012968   0.007441   0.021978
     96       0.186360   0.120161  -0.000918  -0.346576  -0.201748   0.086367
     97       0.151108   0.113020  -0.000619  -0.280220  -0.162896   0.066713
     98       0.012763   0.006240  -0.000090  -0.023800  -0.013904   0.004018
     99       0.002390   0.003056  -0.163754   0.035420  -0.041036   0.042186
    100      -0.001307  -0.001948   0.117231  -0.022697   0.026277  -0.028165
    101      -0.001840  -0.003080   0.196106  -0.038969   0.046841  -0.045480
    102      -0.005548   0.014433  -0.158019   0.148419  -0.222072   0.054897
    103       0.001881  -0.005532   0.051361  -0.055141   0.081806  -0.020588
    104       0.002130  -0.006816   0.056757  -0.065201   0.095883  -0.024671
                 90         91         92         93         94         95    
      0       0.007230   0.000354  -0.000661   0.001486   0.000132  -0.000032
      1       0.005910   0.000583  -0.000352   0.001033  -0.000077   0.000006
      2       0.002421   0.000185  -0.000115  -0.000110  -0.000078  -0.000004
      3       0.000061  -0.001076  -0.000034   0.000153   0.000302  -0.000006
      4      -0.000501  -0.001561  -0.000103  -0.000039   0.000160   0.000013
      5      -0.000038  -0.000096  -0.000336  -0.000138  -0.000171  -0.000007
      6       0.004470   0.000047   0.000081   0.000036   0.000119  -0.000002
      7       0.004922  -0.000059  -0.000280  -0.000124   0.000254   0.000002
      8       0.000297   0.000003   0.000030   0.000020  -0.000068  -0.000002
      9       0.001974   0.000074   0.000109   0.000088  -0.000040  -0.000003
     10       0.001595   0.000055   0.000100   0.000047  -0.000034  -0.000002
     11       0.000133   0.000006   0.000008   0.000002  -0.000006  -0.000001
     12       0.041118  -0.000013   0.000007  -0.000066   0.000007   0.000020
     13       0.000326  -0.000002   0.000002   0.000028  -0.000002  -0.000058
     14       0.015643   0.000006   0.000001   0.000046  -0.000006  -0.000120
     15      -0.017513  -0.000058   0.000009  -0.000100   0.000012   0.000087
     16      -0.011675   0.000019   0.000001   0.000018  -0.000006  -0.000183
     17      -0.033153   0.000028  -0.000004   0.000032  -0.000006  -0.000357
     18       0.002133   0.012960  -0.000428  -0.003165  -0.002065   0.000014
     19      -0.003167  -0.018114   0.002559   0.005265   0.001966  -0.000033
     20       0.000239  -0.075951   0.009370   0.019164   0.010787   0.000013
     21       0.033281  -0.003613   0.005370  -0.018342  -0.001210  -0.000104
     22      -0.001031   0.002704  -0.004541   0.016133   0.001135   0.000082
     23       0.015412   0.015156  -0.020524   0.074986   0.003017   0.000315
     24      -0.005182  -0.000637  -0.015820  -0.005461   0.024229   0.000004
     25      -0.001760   0.005641   0.052206   0.014928  -0.033240  -0.000006
     26      -0.000600   0.015851   0.042666   0.005005   0.079415  -0.000004
     27       0.025551   0.000411   0.000436   0.000433   0.000084  -0.000010
     28       0.019203  -0.000217   0.000898   0.000084  -0.000091   0.000007
     29       0.001457   0.000051  -0.000340   0.000047   0.000044   0.000001
     30      -0.022508  -0.000180   0.000677  -0.000940  -0.000196   0.000051
     31      -0.033037  -0.000037  -0.001161  -0.000023   0.000516  -0.000003
     32      -0.000989  -0.000076   0.000293  -0.000306   0.000340  -0.000004
     33      -0.174815   0.000330  -0.000183   0.000571  -0.000008  -0.001084
     34      -0.038158   0.000134   0.000053  -0.000198  -0.000050   0.000264
     35      -0.160553   0.000140  -0.000278   0.000722   0.000006   0.000189
     36      -0.039750  -0.000108  -0.000988  -0.000380   0.000413   0.000007
     37      -0.026299   0.000238   0.000477   0.000167  -0.000571  -0.000003
     38      -0.002609  -0.000035  -0.000102   0.000000  -0.000213  -0.000001
     39       0.035548   0.000153   0.000060   0.000391   0.000015  -0.000006
     40       0.024434   0.000172   0.000320   0.000236  -0.000094  -0.000014
     41       0.002423   0.000010  -0.000007   0.000092   0.000022   0.000000
     42       0.145651   0.000455  -0.000171   0.000311  -0.000050  -0.005226
     43      -0.008449   0.000035   0.000046  -0.000210  -0.000045  -0.002237
     44       0.040718   0.000495  -0.000054  -0.000213  -0.000111  -0.006906
     45       0.289691   0.000048  -0.000186   0.000740   0.000032  -0.008679
     46       0.006669  -0.000076   0.000104  -0.000444  -0.000020   0.014266
     47       0.128470  -0.000130   0.000232  -0.000960  -0.000043   0.029139
     48       0.015276   0.000167   0.000301   0.000166  -0.000255  -0.000011
     49       0.028992  -0.000036   0.000165   0.000006   0.000027  -0.000000
     50       0.000136   0.000037   0.000058   0.000017   0.000071  -0.000003
     51      -0.022477  -0.000158  -0.000155  -0.000222   0.000027   0.000006
     52      -0.013303  -0.000051  -0.000219  -0.000045   0.000061   0.000000
     53      -0.001573  -0.000003  -0.000018   0.000022   0.000013   0.000001
     54      -0.283210  -0.000051  -0.000023   0.000118   0.000006   0.000627
     55      -0.034691   0.000029  -0.000018  -0.000028  -0.000002   0.000009
     56      -0.186604   0.000061  -0.000030  -0.000046  -0.000003   0.000258
     57      -0.184697  -0.000105   0.000051  -0.000276   0.000027  -0.048771
     58       0.019173  -0.000009  -0.000023   0.000062   0.000009  -0.017216
     59      -0.028299  -0.000049   0.000011  -0.000097   0.000018  -0.058661
     60       0.219919   0.000076  -0.000013   0.000150  -0.000018  -0.002147
     61       0.049332  -0.000021   0.000013  -0.000057   0.000003   0.001358
     62       0.196778  -0.000052   0.000039  -0.000112   0.000004   0.002181
     63      -0.004230  -0.135895   0.014631   0.031092   0.019106  -0.000057
     64       0.013335   0.244148  -0.027701  -0.055766  -0.028692   0.000066
     65      -0.004184   0.914410  -0.103400  -0.217829  -0.116432  -0.000265
     66      -0.146130   0.041310  -0.054240   0.193285   0.007857   0.002342
     67      -0.006283  -0.046994   0.059360  -0.207926  -0.007831  -0.001445
     68      -0.022316  -0.189829   0.248020  -0.894915  -0.039849  -0.004938
     69       0.003423   0.010582   0.057656   0.014507   0.031899  -0.000003
     70      -0.012272  -0.092726  -0.415245  -0.090144  -0.182274   0.000004
     71       0.007509  -0.169236  -0.780072  -0.170556  -0.304029   0.000020
     72       0.002247  -0.012403   0.119664   0.051347  -0.321509  -0.000051
     73      -0.005321   0.028284  -0.211030  -0.090873   0.571102   0.000049
     74      -0.008222  -0.025199   0.268037   0.107799  -0.647441  -0.000036
     75      -0.044390   0.000383   0.000642   0.000359  -0.000261  -0.000058
     76      -0.019662  -0.000598  -0.000310  -0.001089   0.000223   0.000118
     77      -0.003868  -0.000029   0.000142  -0.000134  -0.000247  -0.000017
     78       0.024145  -0.005036   0.001193  -0.000469   0.001090   0.065131
     79       0.055901  -0.001507   0.000335  -0.000302   0.000404   0.024045
     80       0.130467  -0.005831   0.001413  -0.001256   0.001311   0.077178
     81       0.002281  -0.003046  -0.000594  -0.000403   0.002351  -0.000083
     82       0.000514  -0.002273  -0.000897  -0.000816   0.003798   0.000013
     83       0.000128   0.002276   0.001253  -0.001578  -0.000787  -0.000101
     84      -0.354032  -0.000891   0.001445  -0.006138  -0.000245   0.130548
     85       0.008465   0.000704  -0.000856   0.004357   0.000079  -0.172317
     86      -0.120949   0.001393  -0.002031   0.009683   0.000247  -0.340389
     87       0.014659  -0.000679  -0.001445  -0.000030   0.001622   0.000078
     88      -0.030328   0.000262   0.000442   0.000044  -0.000281  -0.000005
     89       0.002692  -0.000097  -0.000134  -0.000104   0.000264   0.000006
     90       0.069852   0.000299   0.000228  -0.000523  -0.000216   0.572774
     91      -0.109526   0.000258   0.000035  -0.000025  -0.000093   0.195315
     92      -0.221647   0.000604   0.000133   0.000064  -0.000301   0.673033
     93       0.008228   0.000180   0.000960   0.000465  -0.000872  -0.000014
     94      -0.050168   0.000262  -0.000754  -0.000198   0.001171  -0.000005
     95       0.002945  -0.000043   0.000095   0.000060   0.000036  -0.000003
     96       0.000032  -0.000298  -0.000426  -0.000404   0.000182   0.000016
     97      -0.000249   0.000159   0.000393   0.000135  -0.000145  -0.000008
     98      -0.000222  -0.000055  -0.000070  -0.000035  -0.000044   0.000001
     99      -0.249955   0.000062  -0.000031   0.000368  -0.000042  -0.000677
    100       0.167321  -0.000065   0.000025  -0.000084   0.000008   0.000057
    101       0.270848  -0.000061   0.000042  -0.000061   0.000001  -0.000206
    102      -0.328807  -0.000057   0.000005  -0.000131   0.000014   0.007469
    103       0.123195  -0.000096   0.000006  -0.000104   0.000026  -0.000321
    104       0.147607  -0.000212   0.000027  -0.000364   0.000054   0.002478
                 96         97         98         99        100        101    
      0      -0.000105  -0.000180   0.000077  -0.000242  -0.000065  -0.000032
      1       0.000121  -0.000031   0.000039  -0.000256  -0.000081   0.000011
      2       0.000183   0.000013  -0.000005  -0.000041  -0.000015   0.000001
      3       0.000008   0.000015  -0.000033  -0.000030  -0.018462   0.000808
      4      -0.000007   0.000009   0.000001  -0.000008   0.049487  -0.002191
      5       0.000023   0.000014  -0.000007  -0.000004  -0.032842   0.001452
      6      -0.000001  -0.000005  -0.000241  -0.000021   0.004230   0.056778
      7      -0.000000   0.000006  -0.000472  -0.000033   0.000367   0.004731
      8      -0.000004  -0.000000  -0.000006   0.000002   0.000503   0.006768
      9      -0.000000  -0.000004  -0.000187   0.000481  -0.001721   0.013510
     10      -0.000001  -0.000002   0.000395   0.000123   0.002533  -0.020051
     11       0.000002  -0.000001  -0.000034   0.000032  -0.000270   0.002154
     12      -0.000559   0.000033  -0.000001  -0.000006   0.000059  -0.000030
     13       0.000101  -0.000037  -0.000001   0.000004   0.000013  -0.000005
     14       0.000009  -0.000067   0.000001   0.000004   0.000054  -0.000028
     15      -0.000152   0.000257  -0.000001  -0.000012  -0.000320   0.000141
     16       0.000051  -0.000210  -0.000000   0.000006  -0.000156   0.000071
     17       0.000055  -0.000391   0.000001   0.000011  -0.000475   0.000208
     18       0.000139  -0.000119   0.000052   0.000069  -0.001342   0.000068
     19      -0.000134  -0.000021  -0.000063   0.000009   0.000527  -0.000013
     20      -0.000637   0.000059  -0.000061  -0.000045  -0.001141   0.000046
     21      -0.000363   0.000456   0.000022  -0.000177   0.000069   0.000014
     22      -0.000209  -0.000208  -0.000037   0.000103  -0.000128   0.000014
     23      -0.000305  -0.000970  -0.000008   0.000100   0.000297  -0.000001
     24      -0.000022   0.000034  -0.000126   0.000045   0.000138  -0.000035
     25      -0.000017  -0.000006   0.000195   0.000079  -0.000560   0.000084
     26      -0.000040  -0.000028  -0.000072   0.000010   0.000107  -0.000032
     27      -0.000029  -0.000023   0.000603  -0.000352  -0.000219  -0.000812
     28       0.000006   0.000015  -0.000253   0.000321   0.000110   0.000295
     29      -0.000010  -0.000005   0.000076  -0.000067   0.000001  -0.000083
     30       0.000094   0.000103  -0.000255   0.002665   0.000049   0.000143
     31       0.000035  -0.000003  -0.000432   0.002604   0.000015  -0.000191
     32       0.000031   0.000024  -0.000005   0.000177   0.000001   0.000013
     33      -0.001264   0.002724  -0.000003  -0.000041   0.000005   0.000002
     34       0.001130   0.000314   0.000006  -0.000043   0.000003   0.000000
     35       0.002102   0.001808  -0.000001  -0.000047  -0.000007  -0.000000
     36       0.000007   0.000021   0.001233   0.000076   0.000189   0.001906
     37       0.000000   0.000008   0.003899   0.000687  -0.000014   0.000771
     38      -0.000005   0.000002  -0.000070  -0.000024   0.000033   0.000198
     39      -0.000075   0.000549  -0.005753   0.041387  -0.000009  -0.000158
     40       0.000111  -0.001052   0.011723  -0.075090  -0.000064   0.000634
     41      -0.000015   0.000111  -0.001218   0.008352   0.000009  -0.000069
     42      -0.054279   0.002241  -0.000021  -0.000125   0.000002  -0.000000
     43      -0.019480   0.001251  -0.000008  -0.000050  -0.000014   0.000002
     44      -0.063508   0.003566  -0.000025  -0.000163  -0.000009   0.000001
     45       0.002992   0.027149  -0.000025  -0.000386   0.000007  -0.000002
     46      -0.003143  -0.034078   0.000033   0.000477   0.000007   0.000001
     47      -0.005961  -0.066987   0.000062   0.000944   0.000008   0.000002
     48       0.000046  -0.000278  -0.085691  -0.013032  -0.000086  -0.001239
     49      -0.000004   0.000016   0.002501   0.001045  -0.000008   0.000871
     50       0.000004  -0.000028  -0.008390  -0.001307  -0.000009  -0.000157
     51       0.000010  -0.000038   0.001558  -0.003914  -0.000067   0.000902
     52       0.000007  -0.000025  -0.003662  -0.001515   0.000076  -0.000666
     53       0.000001  -0.000005   0.000326  -0.000333  -0.000006   0.000108
     54       0.003323   0.000078   0.000001   0.000002   0.000005  -0.000005
     55      -0.001334   0.000170  -0.000002  -0.000007   0.000005   0.000001
     56      -0.001605   0.000395  -0.000002  -0.000017   0.000009  -0.000004
     57       0.003767  -0.025299   0.000029   0.000366   0.000013  -0.000005
     58       0.001560  -0.007215   0.000009   0.000109   0.000004   0.000001
     59       0.005052  -0.026398   0.000031   0.000388  -0.000000  -0.000001
     60       0.000645  -0.001457   0.000003   0.000035  -0.000011   0.000006
     61       0.000006   0.001029  -0.000002  -0.000018  -0.000003   0.000005
     62       0.000294   0.001768  -0.000002  -0.000024  -0.000017   0.000009
     63      -0.001020   0.000157  -0.000134  -0.000123  -0.001966   0.000086
     64       0.001745  -0.000132   0.000220   0.000140  -0.003581   0.000146
     65       0.007501   0.000245   0.000602   0.000499  -0.001551   0.000070
     66       0.002190  -0.004799  -0.000057   0.000344   0.000083   0.000002
     67      -0.000915   0.003017   0.000100  -0.000155  -0.000390  -0.000027
     68      -0.001821   0.010486   0.000270  -0.000924  -0.000231  -0.000047
     69      -0.000149  -0.000063  -0.000225  -0.000252   0.000711   0.000043
     70       0.000284   0.000216  -0.000558  -0.000857   0.000060  -0.000362
     71       0.000496   0.000394  -0.000709  -0.000782   0.000123  -0.000134
     72       0.000449  -0.000458   0.000602  -0.000024   0.000869   0.000204
     73      -0.000487   0.000420  -0.001254  -0.001072   0.001480  -0.000657
     74       0.000481  -0.000353   0.001376   0.000725  -0.002146   0.000658
     75       0.000798  -0.006609   0.071132  -0.471903  -0.000051   0.000448
     76      -0.001452   0.012068  -0.131018   0.858971   0.000145  -0.001898
     77       0.000177  -0.001336   0.014524  -0.095790   0.000003   0.000107
     78       0.624303  -0.029909   0.000232   0.001487   0.000042   0.000001
     79       0.227083  -0.011784   0.000086   0.000536   0.000046  -0.000004
     80       0.733347  -0.036867   0.000272   0.001779   0.000101  -0.000019
     81       0.000022  -0.000001   0.000115   0.000120   0.309028  -0.013630
     82       0.000049   0.000056  -0.000095  -0.000004  -0.780086   0.034481
     83      -0.000047   0.000143   0.000083   0.000024   0.533682  -0.023587
     84      -0.029548  -0.299964   0.000281   0.004169   0.000008   0.000003
     85       0.037325   0.387768  -0.000354  -0.005398  -0.000054  -0.000001
     86       0.073193   0.763660  -0.000707  -0.010594  -0.000030  -0.000003
     87      -0.000592   0.003066   0.979758   0.148920   0.000161   0.004233
     88       0.000022  -0.000106  -0.028264  -0.005208  -0.000220  -0.001513
     89      -0.000055   0.000302   0.095633   0.014604   0.000019   0.000640
     90      -0.047357   0.260375  -0.000307  -0.003866  -0.000018   0.000009
     91      -0.016115   0.086695  -0.000102  -0.001271   0.000004   0.000002
     92      -0.055638   0.300996  -0.000354  -0.004440  -0.000014   0.000007
     93      -0.000001  -0.000036   0.006267   0.000498  -0.067736  -0.906872
     94       0.000008  -0.000028  -0.004291  -0.000559  -0.006898  -0.092081
     95      -0.000004   0.000000   0.001245   0.000106  -0.008071  -0.107977
     96      -0.000003   0.000068   0.001520   0.000784   0.028097  -0.221812
     97      -0.000009   0.000066   0.000445   0.006965  -0.040254   0.318070
     98       0.000002   0.000006   0.000045   0.000123   0.004398  -0.034684
     99       0.001622  -0.000378   0.000005   0.000045  -0.000957   0.000496
    100       0.004275  -0.000249   0.000000   0.000014  -0.000233   0.000126
    101       0.009044  -0.000660   0.000006   0.000043  -0.000850   0.000443
    102      -0.001565   0.003518  -0.000008  -0.000077   0.005097  -0.002233
    103      -0.000228   0.000531  -0.000003  -0.000028   0.002558  -0.001116
    104      -0.001147   0.002786  -0.000010  -0.000093   0.007684  -0.003365
                102        103        104    
      0       0.000114  -0.000062   0.000052
      1       0.000041  -0.000014   0.000012
      2       0.000006  -0.000004   0.000007
      3      -0.001304  -0.000204   0.000071
      4       0.003590   0.000552  -0.000194
      5      -0.002369  -0.000360   0.000126
      6      -0.023883  -0.000731   0.000217
      7      -0.001922  -0.000057   0.000013
      8      -0.002850  -0.000092   0.000026
      9       0.031804   0.000646  -0.000158
     10      -0.047481  -0.000975   0.000245
     11       0.005084   0.000099  -0.000028
     12       0.000055   0.009109   0.043647
     13       0.000012   0.002310   0.011658
     14       0.000051   0.008297   0.041002
     15      -0.000789   0.033429  -0.007068
     16      -0.000384   0.015844  -0.003199
     17      -0.001152   0.048420  -0.009903
     18      -0.000135  -0.000047   0.000019
     19       0.000043  -0.000026   0.000025
     20      -0.000056   0.000015  -0.000011
     21      -0.000039   0.000136  -0.000109
     22      -0.000061   0.000014  -0.000031
     23      -0.000017  -0.000047  -0.000018
     24       0.000011   0.000005  -0.000007
     25      -0.000122   0.000001  -0.000004
     26       0.000025  -0.000016   0.000009
     27       0.000396   0.000000   0.000007
     28      -0.000025   0.000005  -0.000006
     29       0.000026  -0.000002  -0.000001
     30      -0.000128   0.000039  -0.000040
     31      -0.000126  -0.000016   0.000008
     32       0.000004  -0.000000  -0.000005
     33       0.000002  -0.000173   0.000108
     34       0.000005   0.000071   0.000014
     35       0.000004   0.000141   0.000073
     36      -0.000769  -0.000014  -0.000002
     37      -0.000528  -0.000021   0.000007
     38      -0.000073  -0.000005  -0.000001
     39      -0.000105  -0.000019   0.000017
     40       0.001047   0.000021  -0.000006
     41      -0.000112  -0.000007   0.000002
     42      -0.000004   0.000202  -0.000528
     43      -0.000003  -0.000103  -0.000411
     44       0.000001  -0.000188  -0.001140
     45       0.000003   0.000174   0.000105
     46      -0.000007  -0.000054  -0.000065
     47      -0.000007  -0.000032  -0.000129
     48       0.000255   0.000006   0.000001
     49       0.000575   0.000006  -0.000002
     50      -0.000005  -0.000005  -0.000001
     51       0.001666   0.000043  -0.000015
     52      -0.001079  -0.000022   0.000003
     53       0.000210   0.000001  -0.000003
     54       0.000025  -0.000581   0.002147
     55       0.000001   0.000067   0.000094
     56       0.000017  -0.000095   0.000989
     57       0.000029  -0.001215   0.000243
     58      -0.000006   0.000024   0.000119
     59       0.000013  -0.000483   0.000380
     60      -0.000025   0.000601  -0.000208
     61      -0.000021   0.000684  -0.000552
     62      -0.000046   0.001764  -0.001305
     63      -0.000092  -0.000003   0.000005
     64      -0.000318  -0.000047  -0.000026
     65      -0.000248  -0.000145   0.000053
     66       0.000024  -0.000119   0.000302
     67       0.000135   0.000115  -0.000091
     68       0.000213   0.000248  -0.000224
     69       0.000324  -0.000004   0.000009
     70       0.000706   0.000048  -0.000026
     71       0.000440   0.000057  -0.000037
     72       0.000063  -0.000121   0.000100
     73       0.000789   0.000104  -0.000077
     74      -0.000684  -0.000047   0.000037
     75       0.000573   0.000036  -0.000027
     76      -0.003988  -0.000113   0.000052
     77       0.000189   0.000005  -0.000007
     78      -0.000001   0.000121   0.003348
     79       0.000017   0.000107   0.002165
     80       0.000053   0.000270   0.005894
     81       0.022247   0.003329  -0.001101
     82      -0.056355  -0.008532   0.002894
     83       0.038556   0.005837  -0.001974
     84      -0.000003  -0.000779   0.000223
     85       0.000001   0.000552  -0.000079
     86       0.000011   0.000950  -0.000072
     87      -0.002046  -0.000079   0.000035
     88       0.000971   0.000021  -0.000006
     89      -0.000290  -0.000016   0.000002
     90      -0.000083   0.005033  -0.001958
     91      -0.000019   0.000740  -0.000317
     92      -0.000055   0.003470  -0.001488
     93       0.380897   0.011582  -0.003404
     94       0.038558   0.001163  -0.000340
     95       0.045352   0.001374  -0.000407
     96      -0.522684  -0.010648   0.002658
     97       0.749580   0.015294  -0.003831
     98      -0.081717  -0.001670   0.000412
     99      -0.000907  -0.146825  -0.711824
    100      -0.000224  -0.036902  -0.179728
    101      -0.000813  -0.132757  -0.645408
    102       0.012397  -0.521045   0.107484
    103       0.006199  -0.260603   0.053545
    104       0.018679  -0.784557   0.161362


-----------
IR SPECTRUM
-----------

 Mode   freq       eps      Int      T**2         TX        TY        TZ
       cm**-1   L/(mol*cm) km/mol    a.u.
----------------------------------------------------------------------------
  6:     25.23   0.000057    0.29  0.000705  ( 0.010893 -0.022007  0.010096)
  7:     37.41   0.000159    0.80  0.001328  ( 0.028183 -0.006940 -0.022040)
  8:     50.51   0.000008    0.04  0.000047  (-0.006358  0.000172  0.002594)
  9:     68.90   0.000198    1.00  0.000895  (-0.004099  0.010308  0.027782)
 10:    131.05   0.000033    0.17  0.000080  (-0.007169  0.003438  0.004059)
 11:    162.45   0.000297    1.50  0.000570  ( 0.015116 -0.017021  0.007202)
 12:    172.99   0.002268   11.46  0.004092  (-0.035284  0.004498  0.053167)
 13:    210.98   0.002092   10.57  0.003094  ( 0.050933 -0.000841 -0.022336)
 14:    211.72   0.000499    2.52  0.000736  ( 0.006153 -0.012459  0.023300)
 15:    227.08   0.000368    1.86  0.000506  (-0.002953  0.015466  0.016056)
 16:    247.05   0.006704   33.88  0.008468  (-0.067378  0.023235  0.058211)
 17:    256.46   0.000696    3.52  0.000847  (-0.009129 -0.017631  0.021289)
 18:    262.52   0.028911  146.10  0.034367  ( 0.112020 -0.030168 -0.144599)
 19:    315.22   0.000567    2.87  0.000562  ( 0.012893  0.000243 -0.019888)
 20:    321.61   0.002771   14.00  0.002689  ( 0.041038 -0.018699 -0.025597)
 21:    326.34   0.005428   27.43  0.005191  ( 0.005476 -0.006469 -0.071547)
 22:    347.70   0.038597  195.05  0.034642  (-0.022118 -0.170617  0.071009)
 23:    364.18   0.029072  146.92  0.024911  (-0.015255  0.011829  0.156648)
 24:    366.15   0.001978   10.00  0.001686  ( 0.009060  0.027773 -0.028853)
 25:    378.20   0.021701  109.67  0.017906  (-0.023450 -0.122193  0.049247)
 26:    385.69   0.028565  144.36  0.023112  ( 0.028679  0.072103 -0.130732)
 27:    390.20   0.021797  110.15  0.017432  (-0.020515  0.060045  0.115784)
 28:    417.92   0.006532   33.01  0.004878  ( 0.060258  0.029803 -0.018932)
 29:    437.72   0.002998   15.15  0.002138  (-0.021274  0.036204 -0.019347)
 30:    469.56   0.000296    1.49  0.000197  ( 0.002723 -0.013069  0.004284)
 31:    490.40   0.000406    2.05  0.000258  (-0.005694  0.008548 -0.012364)
 32:    515.33   0.001098    5.55  0.000665  (-0.005316 -0.022855  0.010704)
 33:    528.81   0.000936    4.73  0.000552  (-0.020083  0.002797  0.011874)
 34:    557.77   0.002233   11.29  0.001250  ( 0.030774  0.016064  0.006663)
 35:    568.07   0.000872    4.41  0.000479  ( 0.016798 -0.003562  0.013566)
 36:    594.72   0.000912    4.61  0.000479  ( 0.011804 -0.006835 -0.017107)
 37:    622.84   0.000211    1.07  0.000106  (-0.000001  0.007635  0.006880)
 38:    625.57   0.001262    6.38  0.000629  ( 0.002113 -0.008092  0.023654)
 39:    640.97   0.001758    8.89  0.000856  ( 0.005110  0.001801 -0.028752)
 40:    666.87   0.008181   41.34  0.003828  ( 0.052215  0.032339  0.007483)
 41:    676.54   0.002425   12.25  0.001118  ( 0.022143 -0.020890  0.013844)
 42:    712.39   0.001041    5.26  0.000456  (-0.007796  0.001892  0.019794)
 43:    719.93   0.000466    2.36  0.000202  ( 0.009096  0.010844 -0.001310)
 44:    772.85   0.004584   23.16  0.001851  (-0.033458  0.009781  0.025213)
 45:    793.88   0.017412   87.99  0.006844  ( 0.009153 -0.003209 -0.082161)
 46:    797.95   0.001490    7.53  0.000583  ( 0.010740 -0.000074 -0.021617)
 47:    805.79   0.001691    8.54  0.000655  ( 0.021886 -0.000192  0.013257)
 48:    816.00   0.007203   36.40  0.002754  (-0.004395 -0.044552  0.027392)
 49:    824.86   0.001141    5.76  0.000432  ( 0.003248  0.016411  0.012314)
 50:    863.34   0.005880   29.71  0.002125  (-0.000352  0.042750 -0.017251)
 51:    902.05   0.001195    6.04  0.000413  (-0.017865 -0.006468  0.007233)
 52:    921.96   0.000106    0.54  0.000036  (-0.003396  0.004161 -0.002662)
 53:    990.39   0.007236   36.57  0.002280  (-0.016053 -0.037581 -0.024697)
 54:   1000.72   0.001487    7.52  0.000464  ( 0.017933 -0.005766 -0.010436)
 55:   1046.91   0.038909  196.63  0.011598  ( 0.052409  0.093336  0.011815)
 56:   1053.66   0.031115  157.24  0.009215  ( 0.090287  0.018321  0.026980)
 57:   1063.43   0.004859   24.56  0.001426  (-0.013247  0.035329 -0.001537)
 58:   1092.60   0.053123  268.46  0.015173  (-0.117085  0.035645 -0.013903)
 59:   1114.87   0.036580  184.86  0.010239  ( 0.020061 -0.098974 -0.006401)
 60:   1131.43   0.026938  136.13  0.007430  ( 0.057060  0.008370  0.064062)
 61:   1177.34   0.097982  495.16  0.025971  ( 0.112347  0.115422  0.005166)
 62:   1187.09   0.013647   68.96  0.003587  (-0.053289 -0.019586 -0.019080)
 63:   1194.34   0.000462    2.34  0.000121  ( 0.008078  0.005044  0.005485)
 64:   1203.14   0.047337  239.22  0.012278  (-0.104876  0.031355  0.017201)
 65:   1209.43   0.036236  183.12  0.009350  (-0.085867  0.018494  0.040430)
 66:   1215.77   0.068701  347.19  0.017634  ( 0.087925 -0.059441 -0.079813)
 67:   1217.55   0.003523   17.80  0.000903  (-0.006377  0.026590 -0.012457)
 68:   1245.80   0.038920  196.68  0.009749  (-0.000788  0.098685  0.003124)
 69:   1258.23   0.025662  129.69  0.006365  (-0.053715 -0.058804  0.004641)
 70:   1276.35   0.034367  173.68  0.008403  ( 0.089623 -0.010738  0.015967)
 71:   1295.28   0.005246   26.51  0.001264  (-0.021666 -0.011231 -0.025854)
 72:   1323.73   0.041882  211.65  0.009873  ( 0.082346 -0.036526 -0.041933)
 73:   1330.27   0.001156    5.84  0.000271  (-0.009205 -0.004610 -0.012857)
 74:   1341.04   0.002879   14.55  0.000670  ( 0.016070 -0.016355 -0.012009)
 75:   1356.11   0.008923   45.09  0.002053  (-0.044153  0.004073  0.009341)
 76:   1384.50   0.000913    4.61  0.000206  (-0.007131 -0.012436 -0.000462)
 77:   1388.15   0.001538    7.77  0.000346  (-0.016308  0.007223 -0.005262)
 78:   1397.91   0.019844  100.28  0.004430  (-0.059403  0.020173  0.022230)
 79:   1403.28   0.001083    5.47  0.000241  (-0.010778  0.004386  0.010264)
 80:   1418.48   0.018972   95.88  0.004174  ( 0.056092 -0.018766 -0.025988)
 81:   1452.84   0.005137   25.96  0.001103  (-0.016817 -0.020414 -0.020098)
 82:   1488.13   0.011477   58.00  0.002407  ( 0.014747  0.013104  0.044918)
 83:   1501.64   0.019662   99.36  0.004086  (-0.038666  0.050461 -0.006686)
 84:   1504.93   0.012110   61.20  0.002511  (-0.024735  0.043458 -0.003275)
 85:   1551.82   0.037604  190.04  0.007562  (-0.076663 -0.040709 -0.005252)
 86:   1576.39   0.029409  148.62  0.005822  ( 0.065422 -0.029363 -0.026070)
 87:   1651.15   0.042023  212.37  0.007942  (-0.080338  0.037537  0.008892)
 88:   1653.54   0.033397  168.77  0.006303  (-0.068360  0.003600 -0.040209)
 89:   1667.25   0.081445  411.59  0.015244  (-0.055459 -0.110311  0.000127)
 90:   1671.79   0.002893   14.62  0.000540  ( 0.015510 -0.017280 -0.000897)
 91:   3005.90   0.006342   32.05  0.000658  ( 0.006794 -0.007877 -0.023456)
 92:   3023.58   0.007954   40.20  0.000821  (-0.000447  0.026887  0.009889)
 93:   3037.70   0.021876  110.55  0.002247  (-0.001140  0.023141  0.041359)
 94:   3072.69   0.008385   42.38  0.000852  ( 0.003088 -0.010753  0.026953)
 95:   3183.19   0.003538   17.88  0.000347  (-0.018296  0.001849 -0.002944)
 96:   3189.66   0.002017   10.19  0.000197  (-0.000465 -0.005274 -0.013012)
 97:   3202.40   0.002722   13.76  0.000265  (-0.001056 -0.006151 -0.015043)
 98:   3203.86   0.001059    5.35  0.000103  (-0.009241  0.004085 -0.001023)
 99:   3205.59   0.000933    4.72  0.000091  (-0.002680 -0.009133  0.000520)
100:   3719.94   0.013138   66.39  0.001102  (-0.000723 -0.030534  0.013011)
101:   3720.72   0.037657  190.30  0.003158  (-0.044804  0.033109 -0.007401)
102:   3721.34   0.017233   87.09  0.001445  ( 0.013380  0.035545  0.001612)
103:   3722.37   0.037964  191.86  0.003183  (-0.045199 -0.006502 -0.033128)
104:   3724.65   0.017031   86.07  0.001427  (-0.006536 -0.015050 -0.034025)

* The epsilon (eps) is given for a Dirac delta lineshape.
** The dipole moment derivative (T) already includes vibrational overlap.

The first frequency considered to be a vibration is 6
The total number of vibrations considered is 99


--------------------------
THERMOCHEMISTRY AT 298.15K
--------------------------

Temperature         ...   298.15 K
Pressure            ...     1.00 atm
Total Mass          ...   290.27 AMU
Quasi RRHO          ...     True
Cut-Off Frequency   ...     1.00 cm^-1

Throughout the following assumptions are being made:
  (1) The electronic state is orbitally nondegenerate
  (2) There are no thermally accessible electronically excited states
  (3) Hindered rotations indicated by low frequency modes are not
      treated as such but are treated as vibrations and this may
      cause some error
  (4) All equations used are the standard statistical mechanics
      equations for an ideal gas
  (5) All vibrations are strictly harmonic

freq.      25.23  E(vib)   ...       0.56 
freq.      37.41  E(vib)   ...       0.54 
freq.      50.51  E(vib)   ...       0.52 
freq.      68.90  E(vib)   ...       0.50 
freq.     131.05  E(vib)   ...       0.42 
freq.     162.45  E(vib)   ...       0.39 
freq.     172.99  E(vib)   ...       0.38 
freq.     210.98  E(vib)   ...       0.34 
freq.     211.72  E(vib)   ...       0.34 
freq.     227.08  E(vib)   ...       0.33 
freq.     247.05  E(vib)   ...       0.31 
freq.     256.46  E(vib)   ...       0.30 
freq.     262.52  E(vib)   ...       0.29 
freq.     315.22  E(vib)   ...       0.25 
freq.     321.61  E(vib)   ...       0.25 
freq.     326.34  E(vib)   ...       0.24 
freq.     347.70  E(vib)   ...       0.23 
freq.     364.18  E(vib)   ...       0.22 
freq.     366.15  E(vib)   ...       0.22 
freq.     378.20  E(vib)   ...       0.21 
freq.     385.69  E(vib)   ...       0.20 
freq.     390.20  E(vib)   ...       0.20 
freq.     417.92  E(vib)   ...       0.18 
freq.     437.72  E(vib)   ...       0.17 
freq.     469.56  E(vib)   ...       0.16 
freq.     490.40  E(vib)   ...       0.15 
freq.     515.33  E(vib)   ...       0.13 
freq.     528.81  E(vib)   ...       0.13 
freq.     557.77  E(vib)   ...       0.12 
freq.     568.07  E(vib)   ...       0.11 
freq.     594.72  E(vib)   ...       0.10 
freq.     622.84  E(vib)   ...       0.09 
freq.     625.57  E(vib)   ...       0.09 
freq.     640.97  E(vib)   ...       0.09 
freq.     666.87  E(vib)   ...       0.08 
freq.     676.54  E(vib)   ...       0.08 
freq.     712.39  E(vib)   ...       0.07 
freq.     719.93  E(vib)   ...       0.07 
freq.     772.85  E(vib)   ...       0.05 
freq.     793.88  E(vib)   ...       0.05 
freq.     797.95  E(vib)   ...       0.05 
freq.     805.79  E(vib)   ...       0.05 
freq.     816.00  E(vib)   ...       0.05 
freq.     824.86  E(vib)   ...       0.04 
freq.     863.34  E(vib)   ...       0.04 
freq.     902.05  E(vib)   ...       0.03 
freq.     921.96  E(vib)   ...       0.03 
freq.     990.39  E(vib)   ...       0.02 
freq.    1000.72  E(vib)   ...       0.02 
freq.    1046.91  E(vib)   ...       0.02 
freq.    1053.66  E(vib)   ...       0.02 
freq.    1063.43  E(vib)   ...       0.02 
freq.    1092.60  E(vib)   ...       0.02 
freq.    1114.87  E(vib)   ...       0.01 
freq.    1131.43  E(vib)   ...       0.01 
freq.    1177.34  E(vib)   ...       0.01 
freq.    1187.09  E(vib)   ...       0.01 
freq.    1194.34  E(vib)   ...       0.01 
freq.    1203.14  E(vib)   ...       0.01 
freq.    1209.43  E(vib)   ...       0.01 
freq.    1215.77  E(vib)   ...       0.01 
freq.    1217.55  E(vib)   ...       0.01 
freq.    1245.80  E(vib)   ...       0.01 
freq.    1258.23  E(vib)   ...       0.01 
freq.    1276.35  E(vib)   ...       0.01 
freq.    1295.28  E(vib)   ...       0.01 
freq.    1323.73  E(vib)   ...       0.01 
freq.    1330.27  E(vib)   ...       0.01 
freq.    1341.04  E(vib)   ...       0.01 
freq.    1356.11  E(vib)   ...       0.01 
freq.    1384.50  E(vib)   ...       0.00 
freq.    1388.15  E(vib)   ...       0.00 
freq.    1397.91  E(vib)   ...       0.00 
freq.    1403.28  E(vib)   ...       0.00 
freq.    1418.48  E(vib)   ...       0.00 
freq.    1452.84  E(vib)   ...       0.00 
freq.    1488.13  E(vib)   ...       0.00 
freq.    1501.64  E(vib)   ...       0.00 
freq.    1504.93  E(vib)   ...       0.00 
freq.    1551.82  E(vib)   ...       0.00 
freq.    1576.39  E(vib)   ...       0.00 
freq.    1651.15  E(vib)   ...       0.00 
freq.    1653.54  E(vib)   ...       0.00 
freq.    1667.25  E(vib)   ...       0.00 
freq.    1671.79  E(vib)   ...       0.00 
freq.    3005.90  E(vib)   ...       0.00 
freq.    3023.58  E(vib)   ...       0.00 
freq.    3037.70  E(vib)   ...       0.00 
freq.    3072.69  E(vib)   ...       0.00 
freq.    3183.19  E(vib)   ...       0.00 
freq.    3189.66  E(vib)   ...       0.00 
freq.    3202.40  E(vib)   ...       0.00 
freq.    3203.86  E(vib)   ...       0.00 
freq.    3205.59  E(vib)   ...       0.00 
freq.    3719.94  E(vib)   ...       0.00 
freq.    3720.72  E(vib)   ...       0.00 
freq.    3721.34  E(vib)   ...       0.00 
freq.    3722.37  E(vib)   ...       0.00 
freq.    3724.65  E(vib)   ...       0.00 

------------
INNER ENERGY
------------

The inner energy is: U= E(el) + E(ZPE) + E(vib) + E(rot) + E(trans)
    E(el)   - is the total energy from the electronic structure calculation
              = E(kin-el) + E(nuc-el) + E(el-el) + E(nuc-nuc)
    E(ZPE)  - the the zero temperature vibrational energy from the frequency calculation
    E(vib)  - the the finite temperature correction to E(ZPE) due to population
              of excited vibrational states
    E(rot)  - is the rotational thermal energy
    E(trans)- is the translational thermal energy

Summary of contributions to the inner energy U:
Electronic energy                ...  -1030.77896967 Eh
Zero point energy                ...      0.27058837 Eh     169.80 kcal/mol
Thermal vibrational correction   ...      0.01557126 Eh       9.77 kcal/mol
Thermal rotational correction    ...      0.00141627 Eh       0.89 kcal/mol
Thermal translational correction ...      0.00141627 Eh       0.89 kcal/mol
-----------------------------------------------------------------------
Total thermal energy                  -1030.48997750 Eh


Summary of corrections to the electronic energy:
(perhaps to be used in another calculation)
Total thermal correction                  0.01840380 Eh      11.55 kcal/mol
Non-thermal (ZPE) correction              0.27058837 Eh     169.80 kcal/mol
-----------------------------------------------------------------------
Total correction                          0.28899217 Eh     181.34 kcal/mol


--------
ENTHALPY
--------

The enthalpy is H = U + kB*T
                kB is Boltzmann's constant
Total thermal energy              ...  -1030.48997750 Eh 
Thermal Enthalpy correction       ...      0.00094421 Eh       0.59 kcal/mol
-----------------------------------------------------------------------
Total Enthalpy                    ...  -1030.48903329 Eh


Note: Only C1 symmetry has been detected, increase convergence thresholds 
      if your molecule has a higher symmetry. Symmetry factor of 1.0 is   
      used for the rotational entropy correction. 
 

Note: Rotational entropy computed according to Herzberg 
Infrared and Raman Spectra, Chapter V,1, Van Nostrand Reinhold, 1945 
Point Group:  C1, Symmetry Number:   1  
Rotational constants in cm-1:     0.022049     0.004903     0.004332 

Vibrational entropy computed according to the QRRHO of S. Grimme
Chem.Eur.J. 2012 18 9955 using a reference frequency of 100.0 cm-1


-------
ENTROPY
-------

The entropy contributions are T*S = T*(S(el)+S(vib)+S(rot)+S(trans))
     S(el)   - electronic entropy
     S(vib)  - vibrational entropy
     S(rot)  - rotational entropy
     S(trans)- translational entropy
The entropies will be listed as multiplied by the temperature to get
units of energy

Electronic entropy                ...      0.00000000 Eh      0.00 kcal/mol
Vibrational entropy               ...      0.02641042 Eh     16.57 kcal/mol
Rotational entropy                ...      0.01639115 Eh     10.29 kcal/mol
Translational entropy             ...      0.02038048 Eh     12.79 kcal/mol
-----------------------------------------------------------------------
Final entropy term                ...      0.06318205 Eh     39.65 kcal/mol

In case the symmetry of your molecule has not been determined correctly
or in case you have a reason to use a different symmetry number we print 
out the resulting rotational entropy values for sn=1,12:

 non-linear molecules -----------------------------------
|  sn= 1 | S(rot)=       0.01639115 Eh     10.29 kcal/mol|
|  sn= 2 | S(rot)=       0.01573669 Eh      9.87 kcal/mol|
|  sn= 3 | S(rot)=       0.01535386 Eh      9.63 kcal/mol|
|  sn= 4 | S(rot)=       0.01508224 Eh      9.46 kcal/mol|
|  sn= 5 | S(rot)=       0.01487155 Eh      9.33 kcal/mol|
|  sn= 6 | S(rot)=       0.01469940 Eh      9.22 kcal/mol|
|  sn= 7 | S(rot)=       0.01455386 Eh      9.13 kcal/mol|
|  sn= 8 | S(rot)=       0.01442778 Eh      9.05 kcal/mol|
|  sn= 9 | S(rot)=       0.01431657 Eh      8.98 kcal/mol|
|  sn=10 | S(rot)=       0.01421709 Eh      8.92 kcal/mol|
|  sn=11 | S(rot)=       0.01412710 Eh      8.86 kcal/mol|
|  sn=12 | S(rot)=       0.01404495 Eh      8.81 kcal/mol|
 linear molecules ---------------------------------------
|  Dinfh | S(rot)=       0.01046374 Eh      6.57 kcal/mol|
|  Cinfv | S(rot)=       0.01111819 Eh      6.98 kcal/mol|
 --------------------------------------------------------


-------------------
GIBBS FREE ENERGY
-------------------

The Gibbs free energy is G = H - T*S

Total enthalpy                    ...  -1030.48903329 Eh 
Total entropy correction          ...     -0.06318205 Eh    -39.65 kcal/mol
-----------------------------------------------------------------------
Final Gibbs free energy         ...  -1030.55221534 Eh

For completeness - the Gibbs free energy minus the electronic energy
G-E(el)                           ...      0.22675433 Eh    142.29 kcal/mol


Maximum memory used throughout the entire PROP-calculation: 186.4 MB

--------------------------------
SUGGESTED CITATIONS FOR THIS RUN
--------------------------------

Below you find a list of papers that are relevant to this ORCA run
We neither can nor want to force you to cite these papers, but we appreciate if you do
You receive ORCA, which is the product of decades of hard work by many enthusiastic individuals, for free
The only thing we kindly ask in return is that you cite our papers,
We deeply appreciate it, if you show your appreciation for ORCA by not just citing the generic ORCA reference.

Please note that relegating all ORCA citations to the supporting information does *not* help us.
SI sections are not indexed - citations you put there will not count into any citation statistics
But we need these citations in order to attract the funding resources that allow us to do what we are doing

Therefore, if you are a happy ORCA user, please consider citing a few of the papers listed below in the main body of your paper

In addition to the list printed below, the program has created the file Inputs/Catechin_CPCM.bibtex that contains the list in bibtex format
You can import this file easily into all common literature databanks and citation aid programs

It goes without saying that in many instances, there are alternative algorithms to achieve similar
results as the ones you have gotten from ORCA. It is, of course, also the case that in some instances
ORCA just re-implements algorithms worked out by others. We are fully aware of that and we are also
fully appreciative of our colleagues work. Hence this citation list should not be read as indicating
that the listed papers, which are focused on our own work, are the only ones worth citing. It simply
meant to make it easier for users to cite ORCA specific papers. It is not a substitute for doing your
own literature research and citing the relevant literature in a scientifically appropriate manner.

List of essential papers. We consider these as the minimum necessary citations

  1. Neese, F.
     Software update: the ORCA program system, version 6.0
     WIRES Comput. Molec. Sci. 2025 15(1), e70019
     doi.org/10.1002/wcms.70019

List of papers to cite with high priority. The work reported in these papers was absolutely
necessary for this run to complete.
Our perspective: the developers of density functionals and basis sets usually get cited in chemistry papers
Good! But without the algorithms to do something with them, the functionals or basis sets would not do anything.
Hence, in our opinion, the algorithm design and method developments papers are equally worthy of getting cited

  1. Neese, F.
     An improvement of the resolution of the identity approximation for the formation of the Coulomb matrix
     J. Comp. Chem. 2003 24(14), 1740-1747
     doi.org/10.1002/jcc.10318
  2. Neese, F.; Wennmohs, F.; Hansen, A.; Becker, U.
     Efficient, approximate and parallel Hartree-Fock and hybrid DFT calculations. A 'chain-of-spheres' algorithm for the Hartree-Fock exchange
     Chem. Phys. 2009 356(1-3), 98-109
     doi.org/10.1016/j.chemphys.2008.10.036
  3. Bykov, D.; Petrenko, T.; Izsak, R.; Kossmann, S.; Becker, U.; Valeev, E.; Neese, F.
     Efficient implementation of the analytic second derivatives of Hartree-Fock and hybrid DFT energies: a detailed analysis of different approximations
     Molec. Phys. 2015 113 , 1961-1977
     doi.org/10.1080/00268976.2015.1025114
  4. Garcia-Rates, M.; Neese, F.
     Efficient implementation of the analytical second derivatives of hartree-fock and hybrid DFT energies within the framework of the conductor-like polarizable continuum model
     J. Comput. Chem. 2019 40 , 1816-1828
     doi.org/10.1002/jcc.25833
  5. Garcia-Rates, M.; Neese, F.
     Effect of the Solute Cavity on the Solvation Energy and its Derivatives within the Framework of the Gaussian Charge Scheme
     J. Comput. Chem. 2020 41 , 922-939
     doi.org/10.1002/jcc.26139
  6. Helmich-Paris, B.; de Souza, B.; Neese, F.; Izsák, R.
     An improved chain of spheres for exchange algorithm
     J. Chem. Phys. 2021 155(10), 104109
     doi.org/10.1063/5.0058766
  7. Neese, F.
     The SHARK Integral Generation and Digestion System
     J. Comp. Chem. 2022 44(3), 381
     doi.org/10.1002/jcc.26942

List of suggested additional citations. These are papers that are important in the 'surrounding' of 
of this run, or papers that preceded the highly important papers. If you like your results we are grateful for a citation.

  1. Izsak, R.; Neese, F.
     An overlap fitted chain of spheres exchange method
     J. Chem. Phys. 2011 135 , 144105
     doi.org/10.1063/1.3646921
  2. Izsak, R.; Hansen, A.; Neese, F.
     The resolution of identity and chain of spheres approximations for the LPNO-CCSD singles Fock term
     Molec. Phys. 2012 110 , 2413-2417
     doi.org/10.1080/00268976.2012.687466
  3. Neese, F.
     The ORCA program system
     WIRES Comput. Molec. Sci. 2012 2(1), 73-78
     doi.org/10.1002/wcms.81
  4. Izsak, R.; Neese, F.; Klopper, W.
     Robust fitting techniques in the chain of spheres approximation to the Fock exchange: The role of the complementary space
     J. Chem. Phys. 2013 139 , 
     doi.org/10.1063/1.4819264
  5. Neese, F.
     Software update: the ORCA program system, version 4.0
     WIRES Comput. Molec. Sci. 2018 8(1), 1-6
     doi.org/10.1002/wcms.1327
  6. Neese, F.; Wennmohs, F.; Becker, U.; Riplinger, C.
     The ORCA quantum chemistry program package
     J. Chem. Phys. 2020 152(22), 224108
     doi.org/10.1063/5.0004608
  7. Neese, F.
     Software update: The ORCA program system—Version 5.0
     WIRES Comput. Molec. Sci. 2022 12(1), e1606
     doi.org/10.1002/wcms.1606

List of optional additional citations

  1. Neese, F.
     Approximate second-order SCF convergence for spin unrestricted wavefunctions
     Chem. Phys. Lett. 2000 325(1-3), 93-98
     doi.org/10.1016/s0009-2614(00)00662-x

Timings for individual modules:

Sum of individual times          ...     5711.518 sec (=  95.192 min)
Startup calculation              ...       85.534 sec (=   1.426 min)   1.5 %
SCF iterations                   ...     1731.313 sec (=  28.855 min)  30.3 %
Property integrals               ...      720.846 sec (=  12.014 min)  12.6 %
SCF Response                     ...     1044.374 sec (=  17.406 min)  18.3 %
Property calculations            ...     1186.541 sec (=  19.776 min)  20.8 %
SCF Gradient evaluation          ...      941.412 sec (=  15.690 min)  16.5 %
Geometry relaxation              ...        1.498 sec (=   0.025 min)   0.0 %
                             ****ORCA TERMINATED NORMALLY****
TOTAL RUN TIME: 0 days 1 hours 35 minutes 22 seconds 725 msec
